    11
 # iter =     0  time[fs]= 0.00000
   N -0.668466338E+00 -0.116463086E+01  0.250000000E+01
   N  0.668466338E+00 -0.116463086E+01  0.250000000E+01
   C -0.692277627E+00  0.124916000E+01  0.250000000E+01
   C  0.692277627E+00  0.124916000E+01  0.250000000E+01
   C -0.132315667E+01  0.433975300E-03  0.250000000E+01
   C  0.132315667E+01  0.433975300E-03  0.250000000E+01
   H -0.127180384E+01  0.216832769E+01  0.250000000E+01
   H  0.127180384E+01  0.216832769E+01  0.250000000E+01
   H -0.240769469E+01 -0.832907948E-01  0.250000000E+01
   H  0.240769469E+01 -0.832907948E-01  0.250000000E+01
  Xx  0.200000000E+02  0.000000000E+00  0.250000000E+01
    11
 # iter =   250  time[fs]= 0.25000
   N -0.668481251E+00 -0.116465090E+01  0.250000000E+01
   N  0.668475782E+00 -0.116465050E+01  0.250000000E+01
   C -0.692275600E+00  0.124913945E+01  0.250000000E+01
   C  0.692267980E+00  0.124913933E+01  0.250000000E+01
   C -0.132313270E+01  0.428845705E-03  0.250000000E+01
   C  0.132312106E+01  0.428893907E-03  0.250000000E+01
   H -0.127181879E+01  0.216833288E+01  0.250000000E+01
   H  0.127178874E+01  0.216833067E+01  0.250000000E+01
   H -0.240779102E+01 -0.832959082E-01  0.250000000E+01
   H  0.240774677E+01 -0.832962684E-01  0.250000000E+01
  Xx  0.835700086E+01 -0.668667664E-06  0.250000000E+01
    11
 # iter =   500  time[fs]= 0.50000
   N -0.669259871E+00 -0.116431672E+01  0.250000000E+01
   N  0.668965529E+00 -0.116559664E+01  0.250000000E+01
   C -0.693097217E+00  0.124888216E+01  0.250000000E+01
   C  0.693282202E+00  0.125091713E+01  0.250000000E+01
   C -0.132318082E+01  0.435302796E-03  0.250000000E+01
   C -0.159378610E+01 -0.244412828E+01  0.250000000E+01
   H -0.127235517E+01  0.216886559E+01  0.250000000E+01
   H  0.127228034E+01  0.216933585E+01  0.250000000E+01
   H -0.240851375E+01 -0.833240188E-01  0.250000000E+01
   H  0.240707412E+01 -0.126497340E+00  0.250000000E+01
  Xx -0.712434331E+00  0.193747111E+01  0.250000000E+01
    11
 # iter =   750  time[fs]= 0.75000
   N -0.673316253E+00 -0.116222073E+01  0.249999964E+01
   N  0.672253855E+00 -0.116919078E+01  0.249999965E+01
   C -0.700173328E+00  0.124269570E+01  0.249999970E+01
   C  0.700365408E+00  0.125796932E+01  0.249999971E+01
   C -0.132437583E+01  0.594972670E-03  0.249999968E+01
   C -0.896206963E+01 -0.862764419E+01  0.249999939E+01
   H -0.131417427E+01  0.214537244E+01  0.249999807E+01
   H  0.127935047E+01  0.217871458E+01  0.249999857E+01
   H -0.241590618E+01 -0.836159719E-01  0.249999824E+01
   H  0.241279559E+01 -0.214837433E+00  0.249999835E+01
  Xx -0.585080083E+01  0.684492878E+01  0.249999934E+01
    11
 # iter =  1000  time[fs]= 1.00000
   N -0.678523677E+00 -0.116189059E+01  0.249999818E+01
   N  0.677576177E+00 -0.117352514E+01  0.249999806E+01
   C -0.707402762E+00  0.123745359E+01  0.249999841E+01
   C  0.708844528E+00  0.126496234E+01  0.249999836E+01
   C -0.132716100E+01  0.772974649E-03  0.249999863E+01
   C -0.163299196E+02 -0.148107746E+02  0.249999694E+01
   H -0.136703288E+01  0.213154733E+01  0.249999144E+01
   H  0.129308988E+01  0.219770617E+01  0.249999352E+01
   H -0.243328057E+01 -0.849345645E-01  0.249999030E+01
   H  0.242420544E+01 -0.302993255E+00  0.249999066E+01
  Xx -0.109897892E+02  0.117537759E+02  0.249999664E+01
    11
 # iter =  1250  time[fs]= 1.25000
   N -0.684904614E+00 -0.116327863E+01  0.249999606E+01
   N  0.684872544E+00 -0.117853475E+01  0.249999573E+01
   C -0.714797312E+00  0.123305169E+01  0.249999640E+01
   C  0.718635844E+00  0.127195347E+01  0.249999697E+01
   C -0.133129427E+01  0.108107565E-02  0.249999720E+01
   C -0.236977809E+02 -0.209939305E+02  0.249999406E+01
   H -0.142922055E+01  0.213062533E+01  0.249998051E+01
   H  0.131304748E+01  0.222545329E+01  0.249998674E+01
   H -0.246080642E+01 -0.872064066E-01  0.249997959E+01
   H  0.244128767E+01 -0.390882118E+00  0.249998074E+01
  Xx -0.161289372E+02  0.166627909E+02  0.249999281E+01
    11
 # iter =  1500  time[fs]= 1.50000
   N -0.692245405E+00 -0.116637815E+01  0.249999276E+01
   N  0.694057131E+00 -0.118433799E+01  0.249999310E+01
   C -0.722182818E+00  0.122958794E+01  0.249999320E+01
   C  0.729614061E+00  0.127897446E+01  0.249999493E+01
   C -0.133685840E+01  0.163837998E-02  0.249999519E+01
   C -0.310656587E+02 -0.271771092E+02  0.249999118E+01
   H -0.150036579E+01  0.214074941E+01  0.249996610E+01
   H  0.133830842E+01  0.226096692E+01  0.249997834E+01
   H -0.249877293E+01 -0.904682113E-01  0.249996455E+01
   H  0.246396614E+01 -0.478490935E+00  0.249996954E+01
  Xx -0.212681624E+02  0.215719043E+02  0.249998887E+01
    11
 # iter =  1750  time[fs]= 1.75000
   N -0.700591910E+00 -0.117125046E+01  0.249998903E+01
   N  0.704917596E+00 -0.119080379E+01  0.249999022E+01
   C -0.729376295E+00  0.122740605E+01  0.249999024E+01
   C  0.741580381E+00  0.128592490E+01  0.249999221E+01
   C -0.134387735E+01  0.227379336E-02  0.249999219E+01
   C -0.384335426E+02 -0.333603009E+02  0.249998829E+01
   H -0.157954473E+01  0.216085861E+01  0.249994886E+01
   H  0.136902120E+01  0.230452377E+01  0.249996982E+01
   H -0.254656623E+01 -0.944626609E-01  0.249995199E+01
   H  0.249235557E+01 -0.565708065E+00  0.249995666E+01
  Xx -0.264074332E+02  0.264810748E+02  0.249998493E+01
    11
 # iter =  2000  time[fs]= 2.00000
   N -0.709899462E+00 -0.117778451E+01  0.249998505E+01
   N  0.717529059E+00 -0.119795740E+01  0.249998701E+01
   C -0.736770312E+00  0.122628644E+01  0.249998730E+01
   C  0.754771651E+00  0.129287840E+01  0.249998918E+01
   C -0.135223138E+01  0.288852292E-02  0.249998997E+01
   C -0.458014266E+02 -0.395434976E+02  0.249998541E+01
   H -0.166690147E+01  0.219092224E+01  0.249993174E+01
   H  0.140554848E+01  0.235574482E+01  0.249995847E+01
   H -0.260320914E+01 -0.993089132E-01  0.249993957E+01
   H  0.252626501E+01 -0.652843950E+00  0.249994092E+01
  Xx -0.315467341E+02  0.313902824E+02  0.249998099E+01
    11
 # iter =  2250  time[fs]= 2.25000
   N -0.719987728E+00 -0.118600129E+01  0.249998018E+01
   N  0.731599501E+00 -0.120585829E+01  0.249998403E+01
   C -0.744010137E+00  0.122637221E+01  0.249998339E+01
   C  0.768876873E+00  0.130001345E+01  0.249998615E+01
   C -0.136213010E+01  0.361832296E-02  0.249998764E+01
   C -0.531693106E+02 -0.457266942E+02  0.249998253E+01
   H -0.176208703E+01  0.222939464E+01  0.249991464E+01
   H  0.144708432E+01  0.241380280E+01  0.249994683E+01
   H -0.266764908E+01 -0.104944695E+00  0.249992248E+01
   H  0.256614287E+01 -0.740145427E+00  0.249991972E+01
  Xx -0.366860556E+02  0.362995141E+02  0.249997705E+01
    11
 # iter =  2500  time[fs]= 2.50000
   N -0.730581632E+00 -0.119605345E+01  0.249997523E+01
   N  0.746801991E+00 -0.121436639E+01  0.249998066E+01
   C -0.751198137E+00  0.122783214E+01  0.249997954E+01
   C  0.783989640E+00  0.130727602E+01  0.249998338E+01
   C -0.137354356E+01  0.452668066E-02  0.249998595E+01
   C -0.605371946E+02 -0.519098909E+02  0.249997965E+01
   H -0.186340744E+01  0.227483853E+01  0.249989804E+01
   H  0.149317847E+01  0.247789791E+01  0.249993578E+01
   H -0.273989313E+01 -0.111823259E+00  0.249990439E+01
   H  0.261176620E+01 -0.827722517E+00  0.249989606E+01
  Xx -0.418253949E+02  0.412087636E+02  0.249997312E+01
    11
 # iter =  2750  time[fs]= 2.75000
   N -0.741839016E+00 -0.120769128E+01  0.249997059E+01
   N  0.763322600E+00 -0.122346192E+01  0.249997777E+01
   C -0.758475399E+00  0.123055425E+01  0.249997632E+01
   C  0.800125650E+00  0.131475799E+01  0.249998081E+01
   C -0.138634512E+01  0.543948766E-02  0.249998409E+01
   C -0.679050786E+02 -0.580930875E+02  0.249997677E+01
   H -0.196999762E+01  0.232633173E+01  0.249988446E+01
   H  0.154332860E+01  0.254781978E+01  0.249991973E+01
   H -0.281963880E+01 -0.119549309E+00  0.249988556E+01
   H  0.266274194E+01 -0.915652297E+00  0.249987618E+01
  Xx -0.469647519E+02  0.461180309E+02  0.249996918E+01
    11
 # iter =  3000  time[fs]= 3.00000
   N -0.753734495E+00 -0.122092091E+01  0.249996635E+01
   N  0.781037875E+00 -0.123310100E+01  0.249997558E+01
   C -0.765638703E+00  0.123473386E+01  0.249997347E+01
   C  0.816965785E+00  0.132233695E+01  0.249997799E+01
   C -0.140051595E+01  0.637172235E-02  0.249998073E+01
   C -0.752729626E+02 -0.642762842E+02  0.249997388E+01
   H -0.208008951E+01  0.238263085E+01  0.249986946E+01
   H  0.159756835E+01  0.262351044E+01  0.249990289E+01
   H -0.290720428E+01 -0.128333892E+00  0.249986605E+01
   H  0.271891560E+01 -0.100416108E+01  0.249985304E+01
  Xx -0.521041233E+02  0.510273159E+02  0.249996524E+01
    11
 # iter =  3250  time[fs]= 3.25000
   N -0.765802996E+00 -0.123594856E+01  0.249996189E+01
   N  0.799682586E+00 -0.124317654E+01  0.249997373E+01
   C -0.772660676E+00  0.124028582E+01  0.249997098E+01
   C  0.834414609E+00  0.133007484E+01  0.249997504E+01
   C -0.141597486E+01  0.769350346E-02  0.249997687E+01
   C -0.826408466E+02 -0.704594808E+02  0.249997100E+01
   H -0.219317386E+01  0.244311516E+01  0.249984947E+01
   H  0.165495662E+01  0.270398361E+01  0.249988404E+01
   H -0.300358652E+01 -0.138211489E+00  0.249984678E+01
   H  0.278005505E+01 -0.109324218E+01  0.249983120E+01
  Xx -0.572434960E+02  0.559366153E+02  0.249996130E+01
    11
 # iter =  3500  time[fs]= 3.50000
   N -0.778188346E+00 -0.125252128E+01  0.249995750E+01
   N  0.819157990E+00 -0.125374699E+01  0.249997149E+01
   C -0.779701657E+00  0.124690684E+01  0.249996860E+01
   C  0.852476466E+00  0.133805520E+01  0.249997176E+01
   C -0.143264290E+01  0.949909512E-02  0.249997208E+01
   C -0.900087306E+02 -0.766426775E+02  0.249996812E+01
   H -0.230922028E+01  0.250747033E+01  0.249982591E+01
   H  0.171546457E+01  0.278889905E+01  0.249986011E+01
   H -0.310675873E+01 -0.148883434E+00  0.249982388E+01
   H  0.284614680E+01 -0.118305540E+01  0.249980989E+01
  Xx -0.623828687E+02  0.608459159E+02  0.249995736E+01
    11
 # iter =  3750  time[fs]= 3.75000
   N -0.790870473E+00 -0.127052994E+01  0.249995432E+01
   N  0.839559473E+00 -0.126468309E+01  0.249996806E+01
   C -0.786710975E+00  0.125476072E+01  0.249996646E+01
   C  0.871225741E+00  0.134614859E+01  0.249996887E+01
   C -0.145054798E+01  0.115575735E-01  0.249996695E+01
   C -0.973766147E+02 -0.828258742E+02  0.249996524E+01
   H -0.242826673E+01  0.257532642E+01  0.249980297E+01
   H  0.177911702E+01  0.287819492E+01  0.249983332E+01
   H -0.321612775E+01 -0.160232357E+00  0.249980417E+01
   H  0.291676029E+01 -0.127373284E+01  0.249978102E+01
  Xx -0.675222414E+02  0.657552165E+02  0.249995342E+01
    11
 # iter =  4000  time[fs]= 4.00000
   N -0.803981120E+00 -0.128962598E+01  0.249995169E+01
   N  0.860735920E+00 -0.127603003E+01  0.249996530E+01
   C -0.793772392E+00  0.126393958E+01  0.249996510E+01
   C  0.890774373E+00  0.135450200E+01  0.249996510E+01
   C -0.146946524E+01  0.132375880E-01  0.249996170E+01
   C -0.104744499E+03 -0.890090708E+02  0.249996236E+01
   H -0.255023591E+01  0.264663927E+01  0.249977382E+01
   H  0.184605577E+01  0.297182741E+01  0.249980583E+01
   H -0.333152275E+01 -0.172647825E+00  0.249977818E+01
   H  0.299134550E+01 -0.136543548E+01  0.249974657E+01
  Xx -0.726616141E+02  0.706645171E+02  0.249994948E+01
    11
 # iter =  4250  time[fs]= 4.25000
   N -0.817543106E+00 -0.130969144E+01  0.249994996E+01
   N  0.882825170E+00 -0.128764582E+01  0.249996166E+01
   C -0.801068557E+00  0.127415229E+01  0.249996387E+01
   C  0.911115438E+00  0.136314625E+01  0.249996190E+01
   C -0.148941720E+01  0.147998109E-01  0.249995654E+01
   C -0.112112383E+03 -0.951922675E+02  0.249995947E+01
   H -0.267468642E+01  0.272100160E+01  0.249974296E+01
   H  0.191587121E+01  0.306960084E+01  0.249977542E+01
   H -0.345175728E+01 -0.185680876E+00  0.249975105E+01
   H  0.306967601E+01 -0.145822648E+01  0.249971199E+01
  Xx -0.778009868E+02  0.755738177E+02  0.249994554E+01
    11
 # iter =  4500  time[fs]= 4.50000
   N -0.831305253E+00 -0.133071075E+01  0.249994854E+01
   N  0.905733790E+00 -0.129952786E+01  0.249995754E+01
   C -0.808398372E+00  0.128533179E+01  0.249996393E+01
   C  0.932203442E+00  0.137187248E+01  0.249995892E+01
   C -0.151042922E+01  0.163623168E-01  0.249995055E+01
   C -0.119480267E+03 -0.101375464E+03  0.249995659E+01
   H -0.280168391E+01  0.279817049E+01  0.249971137E+01
   H  0.198825174E+01  0.317100216E+01  0.249973796E+01
   H -0.357678513E+01 -0.199461920E+00  0.249971580E+01
   H  0.315136769E+01 -0.155207580E+01  0.249967530E+01
  Xx -0.829403595E+02  0.804831184E+02  0.249994160E+01
    11
 # iter =  4750  time[fs]= 4.75000
   N -0.845472563E+00 -0.135239785E+01  0.249994657E+01
   N  0.929377487E+00 -0.131167982E+01  0.249995369E+01
   C -0.815618612E+00  0.129765725E+01  0.249996545E+01
   C  0.953817546E+00  0.138087430E+01  0.249995557E+01
   C -0.153234984E+01  0.173853327E-01  0.249994499E+01
   C -0.126848151E+03 -0.107558661E+03  0.249995371E+01
   H -0.293079868E+01  0.287786985E+01  0.249967625E+01
   H  0.206297071E+01  0.327582250E+01  0.249970087E+01
   H -0.370585834E+01 -0.213832179E+00  0.249967737E+01
   H  0.323623207E+01 -0.164707722E+01  0.249963315E+01
  Xx -0.880797322E+02  0.853924190E+02  0.249993766E+01
    11
 # iter =  5000  time[fs]= 5.00000
   N -0.859839511E+00 -0.137506511E+01  0.249994393E+01
   N  0.953719158E+00 -0.132409851E+01  0.249995079E+01
   C -0.822811648E+00  0.131087823E+01  0.249996799E+01
   C  0.975939686E+00  0.139014029E+01  0.249995160E+01
   C -0.155517830E+01  0.184564319E-01  0.249994002E+01
   C -0.134216035E+03 -0.113741857E+03  0.249995083E+01
   H -0.306173709E+01  0.295986642E+01  0.249963744E+01
   H  0.213989975E+01  0.338384382E+01  0.249966384E+01
   H -0.383864264E+01 -0.229030374E+00  0.249963467E+01
   H  0.332420366E+01 -0.174312087E+01  0.249958466E+01
  Xx -0.932191049E+02  0.903017196E+02  0.249993372E+01
    11
 # iter =  5250  time[fs]= 5.25000
   N -0.874462338E+00 -0.139866480E+01  0.249994204E+01
   N  0.978676458E+00 -0.133668225E+01  0.249994816E+01
   C -0.830260555E+00  0.132470786E+01  0.249997000E+01
   C  0.998613545E+00  0.139959104E+01  0.249994767E+01
   C -0.157869895E+01  0.199169040E-01  0.249993425E+01
   C -0.141583919E+03 -0.119925054E+03  0.249994794E+01
   H -0.319441526E+01  0.304373720E+01  0.249959576E+01
   H  0.221877684E+01  0.349489845E+01  0.249962436E+01
   H -0.397464097E+01 -0.244756823E+00  0.249958922E+01
   H  0.341513890E+01 -0.184022553E+01  0.249953900E+01
  Xx -0.983584777E+02  0.952110202E+02  0.249992979E+01
    11
 # iter =  5500  time[fs]= 5.50000
   N -0.889256124E+00 -0.142324584E+01  0.249994044E+01
   N  0.100424916E+01 -0.134941398E+01  0.249994538E+01
   C -0.837823622E+00  0.133908267E+01  0.249997093E+01
   C  0.102177257E+01  0.140919378E+01  0.249994454E+01
   C -0.160296437E+01  0.217014399E-01  0.249992857E+01
   C -0.148951803E+03 -0.126108251E+03  0.249994506E+01
   H -0.332875659E+01  0.312951820E+01  0.249955170E+01
   H  0.229951920E+01  0.360854936E+01  0.249958185E+01
   H -0.411374662E+01 -0.260939140E+00  0.249954409E+01
   H  0.350853685E+01 -0.193840979E+01  0.249948715E+01
  Xx -0.103497850E+03  0.100120321E+03  0.249992585E+01
    11
 # iter =  5750  time[fs]= 5.75000
   N -0.904377890E+00 -0.144869675E+01  0.249993949E+01
   N  0.103042725E+01 -0.136239368E+01  0.249994209E+01
   C -0.845320899E+00  0.135412529E+01  0.249997251E+01
   C  0.104531051E+01  0.141902305E+01  0.249994082E+01
   C -0.162794606E+01  0.237741876E-01  0.249992256E+01
   C -0.156319687E+03 -0.132291447E+03  0.249994218E+01
   H -0.346456879E+01  0.321706016E+01  0.249950570E+01
   H  0.238183211E+01  0.372449884E+01  0.249953756E+01
   H -0.425573670E+01 -0.277587226E+00  0.249949171E+01
   H  0.360438858E+01 -0.203762473E+01  0.249943424E+01
  Xx -0.108637223E+03  0.105029621E+03  0.249992191E+01
    11
 # iter =  6000  time[fs]= 6.00000
   N -0.919612728E+00 -0.147505325E+01  0.249993869E+01
   N  0.105699502E+01 -0.137557374E+01  0.249993827E+01
   C -0.852969837E+00  0.136964642E+01  0.249997463E+01
   C  0.106919397E+01  0.142908984E+01  0.249993693E+01
   C -0.165360701E+01  0.261228766E-01  0.249991733E+01
   C -0.163687571E+03 -0.138474644E+03  0.249993930E+01
   H -0.360175186E+01  0.330612263E+01  0.249945768E+01
   H  0.246571170E+01  0.384276652E+01  0.249948900E+01
   H -0.440022055E+01 -0.294683659E+00  0.249943537E+01
   H  0.370237956E+01 -0.213777514E+01  0.249938247E+01
  Xx -0.113776596E+03  0.109938922E+03  0.249991797E+01
    11
 # iter =  6250  time[fs]= 6.25000
   N -0.935089013E+00 -0.150216581E+01  0.249993701E+01
   N  0.108395386E+01 -0.138890658E+01  0.249993522E+01
   C -0.860770013E+00  0.138571885E+01  0.249997725E+01
   C  0.109360687E+01  0.143935794E+01  0.249993403E+01
   C -0.167984920E+01  0.285963843E-01  0.249991326E+01
   C -0.171055455E+03 -0.144657841E+03  0.249993642E+01
   H -0.374021736E+01  0.339671248E+01  0.249940801E+01
   H  0.255104355E+01  0.396316752E+01  0.249943749E+01
   H -0.454696022E+01 -0.312335643E+00  0.249937474E+01
   H  0.380249221E+01 -0.223884677E+01  0.249932741E+01
  Xx -0.118915968E+03  0.114848223E+03  0.249991403E+01
    11
 # iter =  6500  time[fs]= 6.50000
   N -0.950899697E+00 -0.152984006E+01  0.249993497E+01
   N  0.111124209E+01 -0.140248431E+01  0.249993183E+01
   C -0.868596055E+00  0.140246724E+01  0.249997863E+01
   C  0.111830128E+01  0.144977994E+01  0.249993123E+01
   C -0.170670695E+01  0.310433404E-01  0.249990906E+01
   C -0.178423339E+03 -0.150841037E+03  0.249993353E+01
   H -0.387986351E+01  0.348870650E+01  0.249935771E+01
   H  0.263771301E+01  0.408568146E+01  0.249938307E+01
   H -0.469597719E+01 -0.330410069E+00  0.249931646E+01
   H  0.390446926E+01 -0.234084977E+01  0.249926736E+01
  Xx -0.124055341E+03  0.119757523E+03  0.249991009E+01
    11
 # iter =  6750  time[fs]= 6.75000
   N -0.967091514E+00 -0.155788515E+01  0.249993301E+01
   N  0.113896791E+01 -0.141632480E+01  0.249992911E+01
   C -0.876361469E+00  0.141988181E+01  0.249997928E+01
   C  0.114344683E+01  0.146041086E+01  0.249992838E+01
   C -0.173410375E+01  0.331508054E-01  0.249990489E+01
   C -0.185791223E+03 -0.157024234E+03  0.249993065E+01
   H -0.402063775E+01  0.358203574E+01  0.249930820E+01
   H  0.272564361E+01  0.420991725E+01  0.249932910E+01
   H -0.484691660E+01 -0.349042997E+00  0.249925657E+01
   H  0.400815583E+01 -0.244372617E+01  0.249920353E+01
  Xx -0.129194714E+03  0.124666824E+03  0.249990615E+01
    11
 # iter =  7000  time[fs]= 7.00000
   N -0.983623635E+00 -0.158625467E+01  0.249993221E+01
   N  0.116715776E+01 -0.143041585E+01  0.249992561E+01
   C -0.884117534E+00  0.143788214E+01  0.249997988E+01
   C  0.116896905E+01  0.147131064E+01  0.249992557E+01
   C -0.176203664E+01  0.350305510E-01  0.249990032E+01
   C -0.193159107E+03 -0.163207431E+03  0.249992777E+01
   H -0.416252973E+01  0.367650797E+01  0.249925345E+01
   H  0.281473731E+01  0.433581263E+01  0.249927887E+01
   H -0.499983111E+01 -0.368095588E+00  0.249919442E+01
   H  0.411333131E+01 -0.254738458E+01  0.249914348E+01
  Xx -0.134334087E+03  0.129576125E+03  0.249990221E+01
    11
 # iter =  7250  time[fs]= 7.25000
   N -0.100032331E+01 -0.161511308E+01  0.249993106E+01
   N  0.119576331E+01 -0.144471465E+01  0.249992227E+01
   C -0.892016509E+00  0.145632388E+01  0.249998068E+01
   C  0.119491486E+01  0.148238052E+01  0.249992322E+01
   C -0.179050355E+01  0.369340891E-01  0.249989512E+01
   C -0.200526991E+03 -0.169390627E+03  0.249992489E+01
   H -0.430540720E+01  0.377211489E+01  0.249919902E+01
   H  0.290489165E+01  0.446329651E+01  0.249922644E+01
   H -0.515445164E+01 -0.387591524E+00  0.249913454E+01
   H  0.421989352E+01 -0.265184968E+01  0.249908257E+01
  Xx -0.139473459E+03  0.134485425E+03  0.249989827E+01
    11
 # iter =  7500  time[fs]= 7.50000
   N -0.101712607E+01 -0.164446634E+01  0.249992968E+01
   N  0.122475465E+01 -0.145921602E+01  0.249991837E+01
   C -0.899982597E+00  0.147528949E+01  0.249998168E+01
   C  0.122125489E+01  0.149357940E+01  0.249992073E+01
   C -0.181944371E+01  0.388206802E-01  0.249989008E+01
   C -0.207894875E+03 -0.175573824E+03  0.249992201E+01
   H -0.444919291E+01  0.386873620E+01  0.249914759E+01
   H  0.299603893E+01  0.459218684E+01  0.249917287E+01
   H -0.531059986E+01 -0.407450407E+00  0.249907474E+01
   H  0.432772290E+01 -0.275704240E+01  0.249901874E+01
  Xx -0.144612832E+03  0.139394726E+03  0.249989433E+01
    11
 # iter =  7750  time[fs]= 7.75000
   N -0.103403812E+01 -0.167430129E+01  0.249992869E+01
   N  0.125409155E+01 -0.147393932E+01  0.249991462E+01
   C -0.907996641E+00  0.149483459E+01  0.249998320E+01
   C  0.124794105E+01  0.150497201E+01  0.249991795E+01
   C -0.184888165E+01  0.406154071E-01  0.249988557E+01
   C -0.215262759E+03 -0.181757021E+03  0.249991912E+01
   H -0.459384769E+01  0.396636472E+01  0.249909326E+01
   H  0.308806160E+01  0.472238105E+01  0.249911895E+01
   H -0.546830952E+01 -0.427642732E+00  0.249900999E+01
   H  0.443668781E+01 -0.286283471E+01  0.249895367E+01
  Xx -0.149752205E+03  0.144304026E+03  0.249989039E+01
    11
 # iter =  8000  time[fs]= 8.00000
   N -0.105105195E+01 -0.170464274E+01  0.249992826E+01
   N  0.128371860E+01 -0.148885267E+01  0.249991075E+01
   C -0.915957550E+00  0.151493191E+01  0.249998465E+01
   C  0.127491156E+01  0.151650624E+01  0.249991460E+01
   C -0.187882075E+01  0.423984921E-01  0.249988116E+01
   C -0.222630643E+03 -0.187940217E+03  0.249991624E+01
   H -0.473929450E+01  0.406490577E+01  0.249903476E+01
   H  0.318088071E+01  0.485377340E+01  0.249906231E+01
   H -0.562736840E+01 -0.448198203E+00  0.249894661E+01
   H  0.454683658E+01 -0.296933546E+01  0.249888888E+01
  Xx -0.154891577E+03  0.149213327E+03  0.249988646E+01
    11
 # iter =  8250  time[fs]= 8.25000
   N -0.106801374E+01 -0.173536129E+01  0.249992806E+01
   N  0.131349572E+01 -0.150396633E+01  0.249990688E+01
   C -0.923968189E+00  0.153548174E+01  0.249998703E+01
   C  0.130218042E+01  0.152815343E+01  0.249991078E+01
   C -0.190922890E+01  0.440082965E-01  0.249987685E+01
   C -0.229998527E+03 -0.194123414E+03  0.249991336E+01
   H -0.488547512E+01  0.416428779E+01  0.249897871E+01
   H  0.327453601E+01  0.498631083E+01  0.249900280E+01
   H -0.578767870E+01 -0.469099954E+00  0.249887726E+01
   H  0.465805429E+01 -0.307652807E+01  0.249882583E+01
  Xx -0.160030950E+03  0.154122628E+03  0.249988252E+01
    11
 # iter =  8500  time[fs]= 8.50000
   N -0.108497132E+01 -0.176647695E+01  0.249992751E+01
   N  0.134341191E+01 -0.151926604E+01  0.249990328E+01
   C -0.932021412E+00  0.155647741E+01  0.249998923E+01
   C  0.132980657E+01  0.154006334E+01  0.249990610E+01
   C -0.194016509E+01  0.455731162E-01  0.249987285E+01
   C -0.237366411E+03 -0.200306611E+03  0.249991048E+01
   H -0.503232086E+01  0.426446931E+01  0.249891955E+01
   H  0.336891909E+01  0.511987627E+01  0.249894031E+01
   H -0.594915150E+01 -0.490253088E+00  0.249880570E+01
   H  0.477019748E+01 -0.318427241E+01  0.249876174E+01
  Xx -0.165170323E+03  0.159031928E+03  0.249987858E+01
    11
 # iter =  8750  time[fs]= 8.75000
   N -0.110191258E+01 -0.179792064E+01  0.249992671E+01
   N  0.137346603E+01 -0.153469510E+01  0.249989981E+01
   C -0.940127460E+00  0.157785739E+01  0.249999178E+01
   C  0.135778252E+01  0.155211630E+01  0.249990226E+01
   C -0.197154342E+01  0.471217230E-01  0.249986865E+01
   C -0.244734295E+03 -0.206489807E+03  0.249990759E+01
   H -0.517981610E+01  0.436537593E+01  0.249885526E+01
   H  0.346400187E+01  0.525443521E+01  0.249887885E+01
   H -0.611178132E+01 -0.511707637E+00  0.249873135E+01
   H  0.488325298E+01 -0.329260486E+01  0.249869758E+01
  Xx -0.170309696E+03  0.163941229E+03  0.249987464E+01
    11
 # iter =  9000  time[fs]= 9.00000
   N -0.111886669E+01 -0.182958918E+01  0.249992599E+01
   N  0.140370611E+01 -0.155022775E+01  0.249989587E+01
   C -0.948298967E+00  0.159961534E+01  0.249999533E+01
   C  0.138610633E+01  0.156433764E+01  0.249989835E+01
   C -0.200335005E+01  0.485202117E-01  0.249986388E+01
   C -0.252102179E+03 -0.212673004E+03  0.249990471E+01
   H -0.532798026E+01  0.446701475E+01  0.249879372E+01
   H  0.355972375E+01  0.538990233E+01  0.249881632E+01
   H -0.627542241E+01 -0.533458506E+00  0.249865332E+01
   H  0.499715049E+01 -0.340145914E+01  0.249863328E+01
  Xx -0.175449068E+03  0.168850530E+03  0.249987070E+01
    11
 # iter =  9250  time[fs]= 9.25000
   N -0.113582694E+01 -0.186145429E+01  0.249992515E+01
   N  0.143414913E+01 -0.156586014E+01  0.249989179E+01
   C -0.956581183E+00  0.162180493E+01  0.249999931E+01
   C  0.141481045E+01  0.157667957E+01  0.249989390E+01
   C -0.203553612E+01  0.498049485E-01  0.249985856E+01
   C -0.259470063E+03 -0.218856201E+03  0.249990183E+01
   H -0.547674296E+01  0.456929695E+01  0.249873121E+01
   H  0.365608838E+01  0.552622046E+01  0.249875225E+01
   H -0.643999336E+01 -0.555479914E+00  0.249857831E+01
   H  0.511187283E+01 -0.351082879E+01  0.249856552E+01
  Xx -0.180588441E+03  0.173759830E+03  0.249986676E+01
    11
 # iter =  9500  time[fs]= 9.50000
   N -0.115283226E+01 -0.189355632E+01  0.249992472E+01
   N  0.146478842E+01 -0.158157843E+01  0.249988794E+01
   C -0.964969638E+00  0.164428946E+01  0.250000261E+01
   C  0.144375206E+01  0.158916541E+01  0.249989055E+01
   C -0.206810720E+01  0.509671285E-01  0.249985351E+01
   C -0.266837947E+03 -0.225039397E+03  0.249989895E+01
   H -0.562602219E+01  0.467224884E+01  0.249866819E+01
   H  0.375303197E+01  0.566337755E+01  0.249868416E+01
   H -0.660553473E+01 -0.577758279E+00  0.249850085E+01
   H  0.522731923E+01 -0.362072030E+01  0.249849701E+01
  Xx -0.185727814E+03  0.178669131E+03  0.249986282E+01
    11
 # iter =  9750  time[fs]= 9.75000
   N -0.116988976E+01 -0.192597647E+01  0.249992359E+01
   N  0.149564601E+01 -0.159738061E+01  0.249988415E+01
   C -0.973397569E+00  0.166717043E+01  0.250000591E+01
   C  0.147301266E+01  0.160182878E+01  0.249988711E+01
   C -0.210105429E+01  0.520708777E-01  0.249984913E+01
   C -0.274205831E+03 -0.231222594E+03  0.249989607E+01
   H -0.577577580E+01  0.477577029E+01  0.249860401E+01
   H  0.385050124E+01  0.580128780E+01  0.249861719E+01
   H -0.677192698E+01 -0.600271082E+00  0.249842265E+01
   H  0.534351655E+01 -0.373112226E+01  0.249842807E+01
  Xx -0.190867186E+03  0.183578431E+03  0.249985888E+01
    11
 # iter = 10000  time[fs]=10.00000
   N -0.118708048E+01 -0.195874710E+01  0.249992217E+01
   N  0.152668219E+01 -0.161326758E+01  0.249988024E+01
   C -0.981931339E+00  0.169045170E+01  0.250000934E+01
   C  0.150254310E+01  0.161456613E+01  0.249988358E+01
   C -0.213423468E+01  0.531646974E-01  0.249984551E+01
   C -0.281573715E+03 -0.237405791E+03  0.249989318E+01
   H -0.592603441E+01  0.487983426E+01  0.249853509E+01
   H  0.394846268E+01  0.593994040E+01  0.249855125E+01
   H -0.693916904E+01 -0.623036225E+00  0.249834374E+01
   H  0.546038705E+01 -0.384199881E+01  0.249836022E+01
  Xx -0.196006559E+03  0.188487732E+03  0.249985494E+01
    11
 # iter = 10250  time[fs]=10.25000
   N -0.120441446E+01 -0.199188988E+01  0.249992068E+01
   N  0.155787099E+01 -0.162927031E+01  0.249987632E+01
   C -0.990562601E+00  0.171401167E+01  0.250001210E+01
   C  0.153232774E+01  0.162749659E+01  0.249987998E+01
   C -0.216773920E+01  0.543532088E-01  0.249984328E+01
   C -0.288941599E+03 -0.243588987E+03  0.249989030E+01
   H -0.607671888E+01  0.498438818E+01  0.249846879E+01
   H  0.404689641E+01  0.607928469E+01  0.249848505E+01
   H -0.710718850E+01 -0.645999677E+00  0.249826352E+01
   H  0.557790421E+01 -0.395334825E+01  0.249829112E+01
  Xx -0.201145932E+03  0.193397033E+03  0.249985100E+01
    11
 # iter = 10500  time[fs]=10.50000
   N -0.122181618E+01 -0.202537110E+01  0.249991958E+01
   N  0.158917766E+01 -0.164541115E+01  0.249987271E+01
   C -0.999279526E+00  0.173787135E+01  0.250001432E+01
   C  0.156235706E+01  0.164052383E+01  0.249987607E+01
   C -0.220159509E+01  0.556188652E-01  0.249983981E+01
   C -0.296309483E+03 -0.249772184E+03  0.249988742E+01
   H -0.622787185E+01  0.508951333E+01  0.249840141E+01
   H  0.414578649E+01  0.621928355E+01  0.249841793E+01
   H -0.727595999E+01 -0.669181154E+00  0.249818073E+01
   H  0.569603125E+01 -0.406512017E+01  0.249821975E+01
  Xx -0.206285305E+03  0.198306333E+03  0.249984707E+01
    11
 # iter = 10750  time[fs]=10.75000
   N -0.123923490E+01 -0.205911969E+01  0.249991814E+01
   N  0.162057830E+01 -0.166168972E+01  0.249986937E+01
   C -0.100812466E+01  0.176196638E+01  0.250001660E+01
   C  0.159263737E+01  0.165365350E+01  0.249987314E+01
   C -0.223570960E+01  0.569240084E-01  0.249983752E+01
   C -0.303677367E+03 -0.255955381E+03  0.249988454E+01
   H -0.637940400E+01  0.519509120E+01  0.249833175E+01
   H  0.424512229E+01  0.635992858E+01  0.249834920E+01
   H -0.744547810E+01 -0.692587069E+00  0.249809778E+01
   H  0.581475621E+01 -0.417730378E+01  0.249814428E+01
  Xx -0.211424677E+03  0.203215634E+03  0.249984313E+01
    11
 # iter = 11000  time[fs]=11.00000
   N -0.125672626E+01 -0.209310493E+01  0.249991709E+01
   N  0.165211905E+01 -0.167810570E+01  0.249986606E+01
   C -0.101702154E+01  0.178633021E+01  0.250001926E+01
   C  0.162317626E+01  0.166693237E+01  0.249987074E+01
   C -0.227008659E+01  0.583040454E-01  0.249983440E+01
   C -0.311045251E+03 -0.262138577E+03  0.249988166E+01
   H -0.653132967E+01  0.530112046E+01  0.249826266E+01
   H  0.434484066E+01  0.650113744E+01  0.249827806E+01
   H -0.761568248E+01 -0.716159121E+00  0.249801183E+01
   H  0.593402119E+01 -0.428990470E+01  0.249806747E+01
  Xx -0.216564050E+03  0.208124934E+03  0.249983919E+01
    11
 # iter = 11250  time[fs]=11.25000
   N -0.127425837E+01 -0.212732729E+01  0.249991600E+01
   N  0.168385350E+01 -0.169469137E+01  0.249986271E+01
   C -0.102611000E+01  0.181090675E+01  0.250002157E+01
   C  0.165393697E+01  0.168030004E+01  0.249986752E+01
   C -0.230468409E+01  0.598397572E-01  0.249983122E+01
   C -0.318413135E+03 -0.268321774E+03  0.249987877E+01
   H -0.668359927E+01  0.540757554E+01  0.249819337E+01
   H  0.444496470E+01  0.664293114E+01  0.249820470E+01
   H -0.778651486E+01 -0.739936469E+00  0.249792488E+01
   H  0.605380951E+01 -0.440288615E+01  0.249798986E+01
  Xx -0.221703423E+03  0.213034235E+03  0.249983525E+01
    11
 # iter = 11500  time[fs]=11.50000
   N -0.129178106E+01 -0.216177716E+01  0.249991488E+01
   N  0.171577150E+01 -0.171147276E+01  0.249985957E+01
   C -0.103531427E+01  0.183562369E+01  0.250002423E+01
   C  0.168496075E+01  0.169383344E+01  0.249986461E+01
   C -0.233949841E+01  0.613964164E-01  0.249982868E+01
   C -0.325781019E+03 -0.274504971E+03  0.249987589E+01
   H -0.683624516E+01  0.551445855E+01  0.249812294E+01
   H  0.454545863E+01  0.678529773E+01  0.249812980E+01
   H -0.795798281E+01 -0.763891169E+00  0.249783581E+01
   H  0.617413867E+01 -0.451626772E+01  0.249791136E+01
  Xx -0.226842795E+03  0.217943536E+03  0.249983131E+01
    11
 # iter = 11750  time[fs]=11.75000
   N -0.130927263E+01 -0.219649593E+01  0.249991426E+01
   N  0.174785843E+01 -0.172842890E+01  0.249985663E+01
   C -0.104464392E+01  0.186050142E+01  0.250002625E+01
   C  0.171618776E+01  0.170746898E+01  0.249986152E+01
   C -0.237453377E+01  0.630771440E-01  0.249982744E+01
   C -0.333148903E+03 -0.280688167E+03  0.249987301E+01
   H -0.698921760E+01  0.562171752E+01  0.249805211E+01
   H  0.464631590E+01  0.692820447E+01  0.249805346E+01
   H -0.813007059E+01 -0.788011414E+00  0.249774582E+01
   H  0.629492650E+01 -0.463000627E+01  0.249783406E+01
  Xx -0.231982168E+03  0.222852836E+03  0.249982737E+01
    11
 # iter = 12000  time[fs]=12.00000
   N -0.132672916E+01 -0.223146796E+01  0.249991339E+01
   N  0.178006627E+01 -0.174552832E+01  0.249985386E+01
   C -0.105407477E+01  0.188558042E+01  0.250002900E+01
   C  0.174765060E+01  0.172124255E+01  0.249985831E+01
   C -0.240976697E+01  0.647635950E-01  0.249982550E+01
   C -0.340516787E+03 -0.286871364E+03  0.249987013E+01
   H -0.714252386E+01  0.572941258E+01  0.249797928E+01
   H  0.474752731E+01  0.707158686E+01  0.249797556E+01
   H -0.830278030E+01 -0.812322960E+00  0.249765506E+01
   H  0.641617890E+01 -0.474409000E+01  0.249775534E+01
  Xx -0.237121541E+03  0.227762137E+03  0.249982343E+01
    11
 # iter = 12250  time[fs]=12.25000
   N -0.134415384E+01 -0.226666675E+01  0.249991246E+01
   N  0.181235494E+01 -0.176271184E+01  0.249985103E+01
   C -0.106353923E+01  0.191085399E+01  0.250003150E+01
   C  0.177931545E+01  0.173509235E+01  0.249985545E+01
   C -0.244524286E+01  0.665142928E-01  0.249982329E+01
   C -0.347884671E+03 -0.293054561E+03  0.249986724E+01
   H -0.729612678E+01  0.583750081E+01  0.249790536E+01
   H  0.484906016E+01  0.721543904E+01  0.249789704E+01
   H -0.847609705E+01 -0.836820996E+00  0.249756170E+01
   H  0.653789868E+01 -0.485850695E+01  0.249767507E+01
  Xx -0.242260913E+03  0.232671438E+03  0.249981949E+01
    11
 # iter = 12500  time[fs]=12.50000
   N -0.136156245E+01 -0.230205959E+01  0.249991163E+01
   N  0.184471342E+01 -0.177996416E+01  0.249984766E+01
   C -0.107309433E+01  0.193636482E+01  0.250003356E+01
   C  0.181114156E+01  0.174905292E+01  0.249985242E+01
   C -0.248093363E+01  0.682568643E-01  0.249982179E+01
   C -0.355252555E+03 -0.299237757E+03  0.249986436E+01
   H -0.745004933E+01  0.594596366E+01  0.249783223E+01
   H  0.495090561E+01  0.735976408E+01  0.249781859E+01
   H -0.865001197E+01 -0.861500868E+00  0.249746762E+01
   H  0.666006096E+01 -0.497326013E+01  0.249759277E+01
  Xx -0.247400286E+03  0.237580738E+03  0.249981555E+01
    11
 # iter = 12750  time[fs]=12.75000
   N -0.137898143E+01 -0.233760191E+01  0.249991097E+01
   N  0.187713054E+01 -0.179727442E+01  0.249984414E+01
   C -0.108268111E+01  0.196204287E+01  0.250003602E+01
   C  0.184317060E+01  0.176309529E+01  0.249985028E+01
   C -0.251682379E+01  0.700420007E-01  0.249982021E+01
   C -0.362620439E+03 -0.305420954E+03  0.249986148E+01
   H -0.760425815E+01  0.605479514E+01  0.249775899E+01
   H  0.505304362E+01  0.750451504E+01  0.249774051E+01
   H -0.882452148E+01 -0.886356928E+00  0.249737227E+01
   H  0.678264162E+01 -0.508833704E+01  0.249750973E+01
  Xx -0.252539659E+03  0.242490039E+03  0.249981161E+01
    11
 # iter = 13000  time[fs]=13.00000
   N -0.139643407E+01 -0.237329298E+01  0.249991108E+01
   N  0.190964674E+01 -0.181462985E+01  0.249984119E+01
   C -0.109234737E+01  0.198794742E+01  0.250003834E+01
   C  0.187532859E+01  0.177723327E+01  0.249984766E+01
   C -0.255289637E+01  0.718582126E-01  0.249981843E+01
   C -0.369988323E+03 -0.311604151E+03  0.249985860E+01
   H -0.775873840E+01  0.616399440E+01  0.249768367E+01
   H  0.515548851E+01  0.764970265E+01  0.249766064E+01
   H -0.899958949E+01 -0.911387095E+00  0.249727605E+01
   H  0.690562603E+01 -0.520372762E+01  0.249742643E+01
  Xx -0.257679032E+03  0.247399339E+03  0.249980767E+01
    11
 # iter = 13250  time[fs]=13.25000
   N -0.141393033E+01 -0.240916829E+01  0.249991066E+01
   N  0.194229995E+01 -0.183201542E+01  0.249983822E+01
   C -0.110207286E+01  0.201397049E+01  0.250004054E+01
   C  0.190767164E+01  0.179149219E+01  0.249984431E+01
   C -0.258915999E+01  0.737121528E-01  0.249981737E+01
   C -0.377356207E+03 -0.317787347E+03  0.249985572E+01
   H -0.791351181E+01  0.627353989E+01  0.249760579E+01
   H  0.525821232E+01  0.779530083E+01  0.249757964E+01
   H -0.917520192E+01 -0.936593874E+00  0.249717728E+01
   H  0.702900623E+01 -0.531941795E+01  0.249734203E+01
  Xx -0.262818404E+03  0.252308640E+03  0.249980374E+01
    11
 # iter = 13500  time[fs]=13.50000
   N -0.143148004E+01 -0.244525055E+01  0.249991014E+01
   N  0.197509305E+01 -0.184943188E+01  0.249983529E+01
   C -0.111182796E+01  0.204021502E+01  0.250004276E+01
   C  0.194013522E+01  0.180583486E+01  0.249984157E+01
   C -0.262558028E+01  0.755781262E-01  0.249981625E+01
   C -0.384724091E+03 -0.323970544E+03  0.249985283E+01
   H -0.806855201E+01  0.638343700E+01  0.249752820E+01
   H  0.536121231E+01  0.794130063E+01  0.249749835E+01
   H -0.935136693E+01 -0.961975636E+00  0.249707675E+01
   H  0.715275842E+01 -0.543541781E+01  0.249725594E+01
  Xx -0.267957777E+03  0.257217941E+03  0.249979980E+01
    11
 # iter = 13750  time[fs]=13.75000
   N -0.144910976E+01 -0.248156153E+01  0.249990969E+01
   N  0.200801321E+01 -0.186689510E+01  0.249983230E+01
   C -0.112161138E+01  0.206667272E+01  0.250004535E+01
   C  0.197278129E+01  0.182028196E+01  0.249983861E+01
   C -0.266219779E+01  0.774280742E-01  0.249981619E+01
   C -0.392091975E+03 -0.330153740E+03  0.249984995E+01
   H -0.822386343E+01  0.649368493E+01  0.249745105E+01
   H  0.546448861E+01  0.808768302E+01  0.249741601E+01
   H -0.952806152E+01 -0.987529523E+00  0.249697610E+01
   H  0.727687208E+01 -0.555170581E+01  0.249716909E+01
  Xx -0.273097150E+03  0.262127241E+03  0.249979586E+01
    11
 # iter = 14000  time[fs]=14.00000
   N -0.146680931E+01 -0.251809003E+01  0.249990918E+01
   N  0.204102013E+01 -0.188443033E+01  0.249982934E+01
   C -0.113144859E+01  0.209327380E+01  0.250004762E+01
   C  0.200556968E+01  0.183479727E+01  0.249983602E+01
   C -0.269901217E+01  0.792470088E-01  0.249981478E+01
   C -0.399459859E+03 -0.336336937E+03  0.249984707E+01
   H -0.837945649E+01  0.660427836E+01  0.249737267E+01
   H  0.556803478E+01  0.823444116E+01  0.249733255E+01
   H -0.970526245E+01 -0.101325887E+01  0.249687494E+01
   H  0.740133569E+01 -0.566825828E+01  0.249708252E+01
  Xx -0.278236522E+03  0.267036542E+03  0.249979192E+01
    11
 # iter = 14250  time[fs]=14.25000
   N -0.148455826E+01 -0.255476347E+01  0.249990884E+01
   N  0.207407678E+01 -0.190204921E+01  0.249982606E+01
   C -0.114132342E+01  0.212010308E+01  0.250005112E+01
   C  0.203849080E+01  0.184943056E+01  0.249983355E+01
   C -0.273600637E+01  0.810698516E-01  0.249981390E+01
   C -0.406827743E+03 -0.342520134E+03  0.249984419E+01
   H -0.853533241E+01  0.671522365E+01  0.249729347E+01
   H  0.567185273E+01  0.838157237E+01  0.249724846E+01
   H -0.988296431E+01 -0.103916148E+01  0.249677267E+01
   H  0.752614510E+01 -0.578509728E+01  0.249699719E+01
  Xx -0.283375895E+03  0.271945843E+03  0.249978798E+01
    11
 # iter = 14500  time[fs]=14.50000
   N -0.150234152E+01 -0.259152705E+01  0.249990944E+01
   N  0.210717895E+01 -0.191978944E+01  0.249982287E+01
   C -0.115120561E+01  0.214705639E+01  0.250005445E+01
   C  0.207157524E+01  0.186410020E+01  0.249983089E+01
   C -0.277320124E+01  0.829010251E-01  0.249981222E+01
   C -0.414195627E+03 -0.348703330E+03  0.249984131E+01
   H -0.869148740E+01  0.682651392E+01  0.249721362E+01
   H  0.577593270E+01  0.852905841E+01  0.249716358E+01
   H -0.100611474E+02 -0.106523383E+01  0.249666969E+01
   H  0.765127820E+01 -0.590220148E+01  0.249691150E+01
  Xx -0.288515268E+03  0.276855143E+03  0.249978404E+01
    11
 # iter = 14750  time[fs]=14.75000
   N -0.152014563E+01 -0.262837374E+01  0.249991008E+01
   N  0.214034705E+01 -0.193767235E+01  0.249982004E+01
   C -0.116112587E+01  0.217419678E+01  0.250005850E+01
   C  0.210476765E+01  0.187890614E+01  0.249982819E+01
   C -0.281054589E+01  0.847243597E-01  0.249981012E+01
   C -0.421563511E+03 -0.354886527E+03  0.249983842E+01
   H -0.884791381E+01  0.693814218E+01  0.249713286E+01
   H  0.588026899E+01  0.867690153E+01  0.249707790E+01
   H -0.102397977E+02 -0.109147182E+01  0.249656642E+01
   H  0.777674372E+01 -0.601956633E+01  0.249682459E+01
  Xx -0.293654641E+03  0.281764444E+03  0.249978010E+01
    11
 # iter = 15000  time[fs]=15.00000
   N -0.153796230E+01 -0.266537322E+01  0.249991070E+01
   N  0.217361379E+01 -0.195569978E+01  0.249981734E+01
   C -0.117106284E+01  0.220147008E+01  0.250006234E+01
   C  0.213810271E+01  0.189375306E+01  0.249982620E+01
   C -0.284805421E+01  0.865873185E-01  0.249980746E+01
   C -0.428931395E+03 -0.361069724E+03  0.249983554E+01
   H -0.900460909E+01  0.705010075E+01  0.249705150E+01
   H  0.598485274E+01  0.882509020E+01  0.249699196E+01
   H -0.104189037E+02 -0.111787627E+01  0.249646226E+01
   H  0.790254701E+01 -0.613720419E+01  0.249673770E+01
  Xx -0.298794013E+03  0.286673744E+03  0.249977616E+01
    11
 # iter = 15250  time[fs]=15.25000
   N -0.155574841E+01 -0.270256924E+01  0.249991181E+01
   N  0.220701024E+01 -0.197384778E+01  0.249981441E+01
   C -0.118104527E+01  0.222890303E+01  0.250006544E+01
   C  0.217154902E+01  0.190869871E+01  0.249982385E+01
   C -0.288568553E+01  0.884271861E-01  0.249980568E+01
   C -0.436299279E+03 -0.367252920E+03  0.249983266E+01
   H -0.916157226E+01  0.716238385E+01  0.249696997E+01
   H  0.608968491E+01  0.897362347E+01  0.249690577E+01
   H -0.105984575E+02 -0.114444597E+01  0.249635705E+01
   H  0.802866389E+01 -0.625510530E+01  0.249665118E+01
  Xx -0.303933386E+03  0.291583045E+03  0.249977222E+01
    11
 # iter = 15500  time[fs]=15.50000
   N -0.157349708E+01 -0.273994727E+01  0.249991320E+01
   N  0.224052205E+01 -0.199210509E+01  0.249981123E+01
   C -0.119107646E+01  0.225646143E+01  0.250006873E+01
   C  0.220512706E+01  0.192372537E+01  0.249982185E+01
   C -0.292349455E+01  0.902796884E-01  0.249980305E+01
   C -0.443667163E+03 -0.373436117E+03  0.249982978E+01
   H -0.931879623E+01  0.727498275E+01  0.249688840E+01
   H  0.619476039E+01  0.912249401E+01  0.249681905E+01
   H -0.107784475E+02 -0.117117619E+01  0.249625077E+01
   H  0.815509726E+01 -0.637326956E+01  0.249656406E+01
  Xx -0.309072759E+03  0.296492346E+03  0.249976828E+01
    11
 # iter = 15750  time[fs]=15.75000
   N -0.159121183E+01 -0.277745434E+01  0.249991502E+01
   N  0.227411318E+01 -0.201045380E+01  0.249980799E+01
   C -0.120113240E+01  0.228419006E+01  0.250007212E+01
   C  0.223882045E+01  0.193882237E+01  0.249981970E+01
   C -0.296140215E+01  0.921354541E-01  0.249980166E+01
   C -0.451035047E+03 -0.379619314E+03  0.249982689E+01
   H -0.947627233E+01  0.738788955E+01  0.249680676E+01
   H  0.630007083E+01  0.927169256E+01  0.249673179E+01
   H -0.109588665E+02 -0.119806182E+01  0.249614377E+01
   H  0.828185221E+01 -0.649170050E+01  0.249647594E+01
  Xx -0.314212131E+03  0.301401646E+03  0.249976434E+01
    11
 # iter = 16000  time[fs]=16.00000
   N -0.160889975E+01 -0.281505651E+01  0.249991689E+01
   N  0.230775134E+01 -0.202885832E+01  0.249980474E+01
   C -0.121124119E+01  0.231201405E+01  0.250007530E+01
   C  0.227261708E+01  0.195404761E+01  0.249981837E+01
   C -0.299948401E+01  0.939933768E-01  0.249979914E+01
   C -0.458402931E+03 -0.385802510E+03  0.249982401E+01
   H -0.963399235E+01  0.750108979E+01  0.249672426E+01
   H  0.640560994E+01  0.942121157E+01  0.249664361E+01
   H -0.111396934E+02 -0.122509527E+01  0.249603578E+01
   H  0.840892750E+01 -0.661039805E+01  0.249638744E+01
  Xx -0.319351504E+03  0.306310947E+03  0.249976041E+01
    11
 # iter = 16250  time[fs]=16.25000
   N -0.162658788E+01 -0.285272573E+01  0.249991893E+01
   N  0.234140993E+01 -0.204728804E+01  0.249980153E+01
   C -0.122138806E+01  0.233997663E+01  0.250007868E+01
   C  0.230653523E+01  0.196930621E+01  0.249981594E+01
   C -0.303767597E+01  0.958439348E-01  0.249979640E+01
   C -0.465770815E+03 -0.391985707E+03  0.249982113E+01
   H -0.979194952E+01  0.761457468E+01  0.249664122E+01
   H  0.651137158E+01  0.957104288E+01  0.249655442E+01
   H -0.113209153E+02 -0.125227311E+01  0.249592752E+01
   H  0.853632205E+01 -0.672936058E+01  0.249629888E+01
  Xx -0.324490877E+03  0.311220248E+03  0.249975647E+01
    11
 # iter = 16500  time[fs]=16.50000
   N -0.164428826E+01 -0.289049379E+01  0.249992098E+01
   N  0.237509891E+01 -0.206572605E+01  0.249979812E+01
   C -0.123157282E+01  0.236805789E+01  0.250008220E+01
   C  0.234054012E+01  0.198471259E+01  0.249981434E+01
   C -0.307598314E+01  0.976882773E-01  0.249979457E+01
   C -0.473138699E+03 -0.398168904E+03  0.249981825E+01
   H -0.995013784E+01  0.772833807E+01  0.249655818E+01
   H  0.661734746E+01  0.972117764E+01  0.249646506E+01
   H -0.115025216E+02 -0.127959252E+01  0.249581916E+01
   H  0.866403328E+01 -0.684858864E+01  0.249621011E+01
  Xx -0.329630250E+03  0.316129548E+03  0.249975253E+01
    11
 # iter = 16750  time[fs]=16.75000
   N -0.166204944E+01 -0.292839394E+01  0.249992438E+01
   N  0.240883730E+01 -0.208417111E+01  0.249979493E+01
   C -0.124179148E+01  0.239626928E+01  0.250008529E+01
   C  0.237466269E+01  0.200012989E+01  0.249981302E+01
   C -0.311441566E+01  0.995292301E-01  0.249979216E+01
   C -0.480506583E+03 -0.404352100E+03  0.249981537E+01
   H -0.101085517E+02  0.784237350E+01  0.249647514E+01
   H  0.672353117E+01  0.987160694E+01  0.249637569E+01
   H -0.116845040E+02 -0.130704944E+01  0.249571080E+01
   H  0.879205419E+01 -0.696807410E+01  0.249612093E+01
  Xx -0.334769622E+03  0.321038849E+03  0.249974859E+01
    11
 # iter = 17000  time[fs]=17.00000
   N -0.167986509E+01 -0.296644105E+01  0.249992717E+01
   N  0.244267346E+01 -0.210261631E+01  0.249979181E+01
   C -0.125202322E+01  0.242460367E+01  0.250008861E+01
   C  0.240885252E+01  0.201566863E+01  0.249981126E+01
   C -0.315295338E+01  0.101385743E+00  0.249979041E+01
   C -0.487874467E+03 -0.410535297E+03  0.249981248E+01
   H -0.102671849E+02  0.795667456E+01  0.249639210E+01
   H  0.682991488E+01  0.100223210E+02  0.249628609E+01
   H -0.118668537E+02 -0.133463931E+01  0.249560229E+01
   H  0.892037812E+01 -0.708781066E+01  0.249603121E+01
  Xx -0.339908995E+03  0.325948149E+03  0.249974465E+01
    11
 # iter = 17250  time[fs]=17.25000
   N -0.169774611E+01 -0.300461433E+01  0.249992988E+01
   N  0.247662488E+01 -0.212108270E+01  0.249978900E+01
   C -0.126229171E+01  0.245307524E+01  0.250009116E+01
   C  0.244317560E+01  0.203123318E+01  0.249981053E+01
   C -0.319163065E+01  0.103213784E+00  0.249978818E+01
   C -0.495242351E+03 -0.416718494E+03  0.249980960E+01
   H -0.104260323E+02  0.807123392E+01  0.249630906E+01
   H  0.693649614E+01  0.101733114E+02  0.249619598E+01
   H -0.120495620E+02 -0.136235841E+01  0.249549324E+01
   H  0.904899680E+01 -0.720779191E+01  0.249594097E+01
  Xx -0.345048368E+03  0.330857450E+03  0.249974071E+01
    11
 # iter = 17500  time[fs]=17.50000
   N -0.171569887E+01 -0.304288546E+01  0.249993270E+01
   N  0.251065661E+01 -0.213959527E+01  0.249978604E+01
   C -0.127254740E+01  0.248164596E+01  0.250009458E+01
   C  0.247755888E+01  0.204688135E+01  0.249980873E+01
   C -0.323042714E+01  0.105053136E+00  0.249978542E+01
   C -0.502610235E+03 -0.422901690E+03  0.249980672E+01
   H -0.105850877E+02  0.818604420E+01  0.249622602E+01
   H  0.704326903E+01  0.103245698E+02  0.249610582E+01
   H -0.122326189E+02 -0.139020262E+01  0.249538400E+01
   H  0.917790177E+01 -0.732801230E+01  0.249585043E+01
  Xx -0.350187740E+03  0.335766751E+03  0.249973677E+01
    11
 # iter = 17750  time[fs]=17.75000
   N -0.173370590E+01 -0.308122097E+01  0.249993564E+01
   N  0.254473017E+01 -0.215819556E+01  0.249978324E+01
   C -0.128282998E+01  0.251035262E+01  0.250009706E+01
   C  0.251207474E+01  0.206259426E+01  0.249980785E+01
   C -0.326933411E+01  0.106888471E+00  0.249978259E+01
   C -0.509978119E+03 -0.429084887E+03  0.249980384E+01
   H -0.107443456E+02  0.830109766E+01  0.249614298E+01
   H  0.715022766E+01  0.104760889E+02  0.249601566E+01
   H -0.124160126E+02 -0.141816812E+01  0.249527457E+01
   H  0.930708532E+01 -0.744846702E+01  0.249575966E+01
  Xx -0.355327113E+03  0.340676051E+03  0.249973283E+01
    11
 # iter = 18000  time[fs]=18.00000
   N -0.175174540E+01 -0.311960399E+01  0.249993870E+01
   N  0.257881574E+01 -0.217689947E+01  0.249978047E+01
   C -0.129310741E+01  0.253914035E+01  0.250009989E+01
   C  0.254664923E+01  0.207834037E+01  0.249980645E+01
   C -0.330836262E+01  0.108747790E+00  0.249978055E+01
   C -0.517346003E+03 -0.435268084E+03  0.249980096E+01
   H -0.109037998E+02  0.841638583E+01  0.249605994E+01
   H  0.725736655E+01  0.106278649E+02  0.249592549E+01
   H -0.125997317E+02 -0.144625172E+01  0.249516515E+01
   H  0.943653924E+01 -0.756915214E+01  0.249566889E+01
  Xx -0.360466486E+03  0.345585352E+03  0.249972889E+01
    11
 # iter = 18250  time[fs]=18.25000
   N -0.176977935E+01 -0.315806033E+01  0.249994174E+01
   N  0.261291832E+01 -0.219572156E+01  0.249977793E+01
   C -0.130340010E+01  0.256803379E+01  0.250010272E+01
   C  0.258133393E+01  0.209418427E+01  0.249980523E+01
   C -0.334746164E+01  0.110589158E+00  0.249977915E+01
   C -0.524713887E+03 -0.441451280E+03  0.249979807E+01
   H -0.110634453E+02  0.853190253E+01  0.249597690E+01
   H  0.736468187E+01  0.107798923E+02  0.249583533E+01
   H -0.127837678E+02 -0.147445089E+01  0.249505573E+01
   H  0.956625481E+01 -0.769006192E+01  0.249557812E+01
  Xx -0.365605858E+03  0.350494653E+03  0.249972495E+01
    11
 # iter = 18500  time[fs]=18.50000
   N -0.178778091E+01 -0.319663685E+01  0.249994488E+01
   N  0.264707343E+01 -0.221465655E+01  0.249977598E+01
   C -0.131368917E+01  0.259704423E+01  0.250010606E+01
   C  0.261609364E+01  0.211003472E+01  0.249980370E+01
   C -0.338666962E+01  0.112448969E+00  0.249977708E+01
   C -0.532081771E+03 -0.447634477E+03  0.249979519E+01
   H -0.112232780E+02  0.864764126E+01  0.249589386E+01
   H  0.747217053E+01  0.109321665E+02  0.249574517E+01
   H -0.129681130E+02 -0.150276232E+01  0.249494630E+01
   H  0.969622314E+01 -0.781118881E+01  0.249548735E+01
  Xx -0.370745231E+03  0.355403953E+03  0.249972101E+01
    11
 # iter = 18750  time[fs]=18.75000
   N -0.180573525E+01 -0.323535057E+01  0.249994770E+01
   N  0.268130885E+01 -0.223370298E+01  0.249977433E+01
   C -0.132396266E+01  0.262612699E+01  0.250010835E+01
   C  0.265095793E+01  0.212599763E+01  0.249980203E+01
   C -0.342596148E+01  0.114308146E+00  0.249977575E+01
   C -0.539449655E+03 -0.453817674E+03  0.249979231E+01
   H -0.113832960E+02  0.876359741E+01  0.249581082E+01
   H  0.757982841E+01  0.110846783E+02  0.249565500E+01
   H -0.131527605E+02 -0.153118429E+01  0.249483688E+01
   H  0.982643781E+01 -0.793252581E+01  0.249539657E+01
  Xx -0.375884604E+03  0.360313254E+03  0.249971708E+01
    11
 # iter = 19000  time[fs]=19.00000
   N -0.182362115E+01 -0.327417507E+01  0.249995079E+01
   N  0.271564742E+01 -0.225282988E+01  0.249977273E+01
   C -0.133423541E+01  0.265532346E+01  0.250011186E+01
   C  0.268590449E+01  0.214197025E+01  0.249980051E+01
   C -0.346532871E+01  0.116187519E+00  0.249977386E+01
   C -0.546817539E+03 -0.460000870E+03  0.249978943E+01
   H -0.115434945E+02  0.887976683E+01  0.249572778E+01
   H  0.768765117E+01  0.112374212E+02  0.249556484E+01
   H -0.133377053E+02 -0.155971439E+01  0.249472746E+01
   H  0.995689148E+01 -0.805406643E+01  0.249530578E+01
  Xx -0.381023977E+03  0.365222554E+03  0.249971314E+01
    11
 # iter = 19250  time[fs]=19.25000
   N -0.184144717E+01 -0.331305955E+01  0.249995406E+01
   N  0.275007738E+01 -0.227200358E+01  0.249977092E+01
   C -0.134450329E+01  0.268461313E+01  0.250011442E+01
   C  0.272094007E+01  0.215805681E+01  0.249979880E+01
   C -0.350478977E+01  0.118053055E+00  0.249977138E+01
   C -0.554185423E+03 -0.466184067E+03  0.249978654E+01
   H -0.117038689E+02  0.899614374E+01  0.249564474E+01
   H  0.779563447E+01  0.113903892E+02  0.249547468E+01
   H -0.135229388E+02 -0.158834983E+01  0.249461803E+01
   H  0.100875775E+02 -0.817580615E+01  0.249521426E+01
  Xx -0.386163349E+03  0.370131855E+03  0.249970920E+01
    11
 # iter = 19500  time[fs]=19.50000
   N -0.185922154E+01 -0.335196759E+01  0.249995739E+01
   N  0.278456273E+01 -0.229118276E+01  0.249976900E+01
   C -0.135476526E+01  0.271399811E+01  0.250011727E+01
   C  0.275607061E+01  0.217416125E+01  0.249979716E+01
   C -0.354431211E+01  0.119929415E+00  0.249976931E+01
   C -0.561553307E+03 -0.472367264E+03  0.249978366E+01
   H -0.118644158E+02  0.911272178E+01  0.249556170E+01
   H  0.790377585E+01  0.115435779E+02  0.249538451E+01
   H -0.137084521E+02 -0.161708792E+01  0.249450861E+01
   H  0.102184895E+02 -0.829773897E+01  0.249512227E+01
  Xx -0.391302722E+03  0.375041156E+03  0.249970526E+01
    11
 # iter = 19750  time[fs]=19.75000
   N -0.187696758E+01 -0.339093073E+01  0.249996059E+01
   N  0.281905950E+01 -0.231034900E+01  0.249976810E+01
   C -0.136503447E+01  0.274349240E+01  0.250011999E+01
   C  0.279126754E+01  0.219035091E+01  0.249979548E+01
   C -0.358392546E+01  0.121794642E+00  0.249976640E+01
   C -0.568921191E+03 -0.478550460E+03  0.249978078E+01
   H -0.120251305E+02  0.922949648E+01  0.249547866E+01
   H  0.801207107E+01  0.116969800E+02  0.249529435E+01
   H -0.138942387E+02 -0.164592613E+01  0.249439919E+01
   H  0.103496227E+02 -0.841986098E+01  0.249503028E+01
  Xx -0.396442095E+03  0.379950456E+03  0.249970132E+01
    11
 # iter = 20000  time[fs]=20.00000
   N -0.189471039E+01 -0.342999724E+01  0.249996378E+01
   N  0.285357208E+01 -0.232950745E+01  0.249976759E+01
   C -0.137528321E+01  0.277305670E+01  0.250012251E+01
   C  0.282657098E+01  0.220659249E+01  0.249979378E+01
   C -0.362360026E+01  0.123676125E+00  0.249976402E+01
   C -0.576289075E+03 -0.484733657E+03  0.249977790E+01
   H -0.121860082E+02  0.934646451E+01  0.249539562E+01
   H  0.812051474E+01  0.118505887E+02  0.249520419E+01
   H -0.140802945E+02 -0.167486187E+01  0.249428976E+01
   H  0.104809724E+02 -0.854216674E+01  0.249493830E+01
  Xx -0.401581467E+03  0.384859757E+03  0.249969738E+01
    11
 # iter = 20250  time[fs]=20.25000
   N -0.191246932E+01 -0.346918271E+01  0.249996653E+01
   N  0.288810252E+01 -0.234864594E+01  0.249976701E+01
   C -0.138553861E+01  0.280272624E+01  0.250012515E+01
   C  0.286190760E+01  0.222287521E+01  0.249979209E+01
   C -0.366334586E+01  0.125557702E+00  0.249976149E+01
   C -0.583656959E+03 -0.490916854E+03  0.249977502E+01
   H -0.123470441E+02  0.946362087E+01  0.249531258E+01
   H  0.822910063E+01  0.120043968E+02  0.249511402E+01
   H -0.142666135E+02 -0.170389185E+01  0.249418034E+01
   H  0.106125354E+02 -0.866465353E+01  0.249484631E+01
  Xx -0.406720840E+03  0.389769057E+03  0.249969344E+01
    11
 # iter = 20500  time[fs]=20.50000
   N -0.193027723E+01 -0.350846649E+01  0.249996965E+01
   N  0.292269413E+01 -0.236777669E+01  0.249976634E+01
   C -0.139578178E+01  0.283246549E+01  0.250012826E+01
   C  0.289736035E+01  0.223925749E+01  0.249979044E+01
   C -0.370316343E+01  0.127441897E+00  0.249975892E+01
   C -0.591024843E+03 -0.497100050E+03  0.249977213E+01
   H -0.125082352E+02  0.958096095E+01  0.249522954E+01
   H  0.833782531E+01  0.121583977E+02  0.249502386E+01
   H -0.144531896E+02 -0.173301356E+01  0.249407092E+01
   H  0.107443077E+02 -0.878731706E+01  0.249475432E+01
  Xx -0.411860213E+03  0.394678358E+03  0.249968950E+01
    11
 # iter = 20750  time[fs]=20.75000
   N -0.194814498E+01 -0.354780477E+01  0.249997296E+01
   N  0.295737785E+01 -0.238693446E+01  0.249976555E+01
   C -0.140603370E+01  0.286228416E+01  0.250013152E+01
   C  0.293286152E+01  0.225562978E+01  0.249978858E+01
   C -0.374303669E+01  0.129329191E+00  0.249975599E+01
   C -0.598392727E+03 -0.503283247E+03  0.249976925E+01
   H -0.126695787E+02  0.969847987E+01  0.249514650E+01
   H  0.844668762E+01  0.123125889E+02  0.249493370E+01
   H -0.146400155E+02 -0.176222555E+01  0.249396149E+01
   H  0.108762815E+02 -0.891015165E+01  0.249466233E+01
  Xx -0.416999586E+03  0.399587659E+03  0.249968556E+01
    11
 # iter = 21000  time[fs]=21.00000
   N -0.196604807E+01 -0.358717478E+01  0.249997581E+01
   N  0.299215873E+01 -0.240616190E+01  0.249976476E+01
   C -0.141627864E+01  0.289217917E+01  0.250013459E+01
   C  0.296846901E+01  0.227210858E+01  0.249978698E+01
   C -0.378299854E+01  0.131206833E+00  0.249975346E+01
   C -0.605760611E+03 -0.509466444E+03  0.249976637E+01
   H -0.128310734E+02  0.981617389E+01  0.249506346E+01
   H  0.855568476E+01  0.124669650E+02  0.249484353E+01
   H -0.148270860E+02 -0.179152692E+01  0.249385207E+01
   H  0.110084490E+02 -0.903315231E+01  0.249457034E+01
  Xx -0.422138958E+03  0.404496959E+03  0.249968162E+01
    11
 # iter = 21250  time[fs]=21.25000
   N -0.198397676E+01 -0.362659159E+01  0.249997924E+01
   N  0.302700013E+01 -0.242549492E+01  0.249976428E+01
   C -0.142652663E+01  0.292213267E+01  0.250013786E+01
   C  0.300413040E+01  0.228855118E+01  0.249978471E+01
   C -0.382299403E+01  0.133075945E+00  0.249975077E+01
   C -0.613128495E+03 -0.515649640E+03  0.249976349E+01
   H -0.129927163E+02  0.993403936E+01  0.249498042E+01
   H  0.866481459E+01  0.126215236E+02  0.249475337E+01
   H -0.150143953E+02 -0.182091623E+01  0.249374264E+01
   H  0.111408045E+02 -0.915631572E+01  0.249447835E+01
  Xx -0.427278331E+03  0.409406260E+03  0.249967769E+01
    11
 # iter = 21500  time[fs]=21.50000
   N -0.200191230E+01 -0.366607485E+01  0.249998253E+01
   N  0.306184331E+01 -0.244493942E+01  0.249976446E+01
   C -0.143677920E+01  0.295218082E+01  0.250014117E+01
   C  0.303988799E+01  0.230510029E+01  0.249978284E+01
   C -0.386305595E+01  0.134924599E+00  0.249974790E+01
   C -0.620496379E+03 -0.521832837E+03  0.249976061E+01
   H -0.131545027E+02  0.100520720E+02  0.249489738E+01
   H  0.877407378E+01  0.127762608E+02  0.249466321E+01
   H -0.152019376E+02 -0.185039110E+01  0.249363322E+01
   H  0.112733449E+02 -0.927964071E+01  0.249438636E+01
  Xx -0.432417704E+03  0.414315561E+03  0.249967375E+01
    11
 # iter = 21750  time[fs]=21.75000
   N -0.201984483E+01 -0.370566694E+01  0.249998594E+01
   N  0.309666389E+01 -0.246449308E+01  0.249976465E+01
   C -0.144701862E+01  0.298229386E+01  0.250014405E+01
   C  0.307568738E+01  0.232160946E+01  0.249978113E+01
   C -0.390317716E+01  0.136749481E+00  0.249974519E+01
   C -0.627864263E+03 -0.528016034E+03  0.249975772E+01
   H -0.133164300E+02  0.101702673E+02  0.249481434E+01
   H  0.888345949E+01  0.129311740E+02  0.249457304E+01
   H -0.153897060E+02 -0.187994976E+01  0.249352380E+01
   H  0.114060673E+02 -0.940312520E+01  0.249429438E+01
  Xx -0.437557076E+03  0.419224861E+03  0.249966981E+01
    11
 # iter = 22000  time[fs]=22.00000
   N -0.203775414E+01 -0.374537461E+01  0.249998920E+01
   N  0.313149506E+01 -0.248414496E+01  0.249976492E+01
   C -0.145726703E+01  0.301248044E+01  0.250014703E+01
   C  0.311156118E+01  0.233819496E+01  0.249977857E+01
   C -0.394334751E+01  0.138565629E+00  0.249974170E+01
   C -0.635232147E+03 -0.534199230E+03  0.249975484E+01
   H -0.134784950E+02  0.102886217E+02  0.249473130E+01
   H  0.899296787E+01  0.130862570E+02  0.249448288E+01
   H -0.155776952E+02 -0.190959004E+01  0.249341437E+01
   H  0.115389679E+02 -0.952676539E+01  0.249420239E+01
  Xx -0.442696449E+03  0.424134162E+03  0.249966587E+01
    11
 # iter = 22250  time[fs]=22.25000
   N -0.205560336E+01 -0.378514921E+01  0.249999259E+01
   N  0.316638567E+01 -0.250386518E+01  0.249976543E+01
   C -0.146751259E+01  0.304272928E+01  0.250014957E+01
   C  0.314748067E+01  0.235478742E+01  0.249977674E+01
   C -0.398359477E+01  0.140364863E+00  0.249973861E+01
   C -0.642600031E+03 -0.540382427E+03  0.249975196E+01
   H -0.136406943E+02  0.104071319E+02  0.249464825E+01
   H  0.910259676E+01  0.132415071E+02  0.249439272E+01
   H -0.157659011E+02 -0.193931005E+01  0.249330495E+01
   H  0.116720417E+02 -0.965055697E+01  0.249411040E+01
  Xx -0.447835822E+03  0.429043462E+03  0.249966193E+01
    11
 # iter = 22500  time[fs]=22.50000
   N -0.207337709E+01 -0.382495537E+01  0.249999579E+01
   N  0.320135517E+01 -0.252363201E+01  0.249976598E+01
   C -0.147776644E+01  0.307301347E+01  0.250015244E+01
   C  0.318347900E+01  0.237141758E+01  0.249977370E+01
   C -0.402388443E+01  0.142156924E+00  0.249973573E+01
   C -0.649967915E+03 -0.546565624E+03  0.249974908E+01
   H -0.138030256E+02  0.105257950E+02  0.249456521E+01
   H  0.921234417E+01  0.133969215E+02  0.249430255E+01
   H -0.159543193E+02 -0.196910787E+01  0.249319553E+01
   H  0.118052827E+02 -0.977449499E+01  0.249401841E+01
  Xx -0.452975195E+03  0.433952763E+03  0.249965799E+01
    11
 # iter = 22750  time[fs]=22.75000
   N -0.209109558E+01 -0.386478419E+01  0.249999934E+01
   N  0.323641106E+01 -0.254341705E+01  0.249976742E+01
   C -0.148801234E+01  0.310337632E+01  0.250015527E+01
   C  0.321951736E+01  0.238808723E+01  0.249977138E+01
   C -0.406422752E+01  0.143941127E+00  0.249973238E+01
   C -0.657335799E+03 -0.552748820E+03  0.249974619E+01
   H -0.139654858E+02  0.106446069E+02  0.249448217E+01
   H  0.932220718E+01  0.135524963E+02  0.249421239E+01
   H -0.161429461E+02 -0.199898166E+01  0.249308610E+01
   H  0.119386863E+02 -0.989857508E+01  0.249392642E+01
  Xx -0.458114567E+03  0.438862064E+03  0.249965405E+01
    11
 # iter = 23000  time[fs]=23.00000
   N -0.210877073E+01 -0.390466966E+01  0.250000246E+01
   N  0.327152258E+01 -0.256320151E+01  0.249976898E+01
   C -0.149826872E+01  0.313377107E+01  0.250015743E+01
   C  0.325564498E+01  0.240475543E+01  0.249976881E+01
   C -0.410463488E+01  0.145712032E+00  0.249973002E+01
   C -0.664703683E+03 -0.558932017E+03  0.249974331E+01
   H -0.141280720E+02  0.107635648E+02  0.249439913E+01
   H  0.943218440E+01  0.137082270E+02  0.249412223E+01
   H -0.163317776E+02 -0.202893002E+01  0.249297668E+01
   H  0.120722498E+02 -0.100227945E+02  0.249383443E+01
  Xx -0.463253940E+03  0.443771364E+03  0.249965011E+01
    11
 # iter = 23250  time[fs]=23.25000
   N -0.212642297E+01 -0.394464855E+01  0.250000596E+01
   N  0.330665230E+01 -0.258295809E+01  0.249977057E+01
   C -0.150850535E+01  0.316424446E+01  0.250016002E+01
   C  0.329179187E+01  0.242150294E+01  0.249976724E+01
   C -0.414507551E+01  0.147486025E+00  0.249972716E+01
   C -0.672071567E+03 -0.565115214E+03  0.249974043E+01
   H -0.142907814E+02  0.108826649E+02  0.249431609E+01
   H  0.954227317E+01  0.138641102E+02  0.249403206E+01
   H -0.165208076E+02 -0.205895136E+01  0.249286726E+01
   H  0.122059725E+02 -0.101471517E+02  0.249374244E+01
  Xx -0.468393313E+03  0.448680665E+03  0.249964617E+01
    11
 # iter = 23500  time[fs]=23.50000
   N -0.214406920E+01 -0.398471259E+01  0.250000882E+01
   N  0.334176524E+01 -0.260269776E+01  0.249977220E+01
   C -0.151873885E+01  0.319476876E+01  0.250016198E+01
   C  0.332804196E+01  0.243823844E+01  0.249976556E+01
   C -0.418558091E+01  0.149219805E+00  0.249972452E+01
   C -0.679439451E+03 -0.571298410E+03  0.249973755E+01
   H -0.144536109E+02  0.110019030E+02  0.249423305E+01
   H  0.965247167E+01  0.140201445E+02  0.249394190E+01
   H -0.167100303E+02 -0.208904460E+01  0.249275783E+01
   H  0.123398508E+02 -0.102716462E+02  0.249365046E+01
  Xx -0.473532685E+03  0.453589966E+03  0.249964223E+01
    11
 # iter = 23750  time[fs]=23.75000
   N -0.216174582E+01 -0.402484701E+01  0.250001114E+01
   N  0.337686195E+01 -0.262245848E+01  0.249977372E+01
   C -0.152897143E+01  0.322535931E+01  0.250016416E+01
   C  0.336428479E+01  0.245506619E+01  0.249976288E+01
   C -0.422613423E+01  0.150961213E+00  0.249972210E+01
   C -0.686807335E+03 -0.577481607E+03  0.249973467E+01
   H -0.146165582E+02  0.111212758E+02  0.249415001E+01
   H  0.976277689E+01  0.141763274E+02  0.249385174E+01
   H -0.168994398E+02 -0.211920815E+01  0.249264841E+01
   H  0.124738807E+02 -0.103962768E+02  0.249355847E+01
  Xx -0.478672058E+03  0.458499266E+03  0.249963829E+01
    11
 # iter = 24000  time[fs]=24.00000
   N -0.217947097E+01 -0.406501552E+01  0.250001422E+01
   N  0.341198404E+01 -0.264226481E+01  0.249977577E+01
   C -0.153919586E+01  0.325601491E+01  0.250016612E+01
   C  0.340064677E+01  0.247188013E+01  0.249976142E+01
   C -0.426674507E+01  0.152677297E+00  0.249971961E+01
   C -0.694175219E+03 -0.583664804E+03  0.249973178E+01
   H -0.147796211E+02  0.112407811E+02  0.249406697E+01
   H  0.987318736E+01  0.143326557E+02  0.249376157E+01
   H -0.170890339E+02 -0.214944066E+01  0.249253899E+01
   H  0.126080579E+02 -0.105210391E+02  0.249346648E+01
  Xx -0.483811431E+03  0.463408567E+03  0.249963436E+01
    11
 # iter = 24250  time[fs]=24.25000
   N -0.219724195E+01 -0.410519493E+01  0.250001690E+01
   N  0.344717342E+01 -0.266212757E+01  0.249977807E+01
   C -0.154942152E+01  0.328670851E+01  0.250016763E+01
   C  0.343698412E+01  0.248876045E+01  0.249975901E+01
   C -0.430740883E+01  0.154395124E+00  0.249971754E+01
   C -0.701543103E+03 -0.589848000E+03  0.249972890E+01
   H -0.149427990E+02  0.113604158E+02  0.249398393E+01
   H  0.998370009E+01  0.144891263E+02  0.249367141E+01
   H -0.172788060E+02 -0.217974020E+01  0.249242956E+01
   H  0.127423797E+02 -0.106459302E+02  0.249337449E+01
  Xx -0.488950803E+03  0.468317867E+03  0.249963042E+01
    11
 # iter = 24500  time[fs]=24.50000
   N -0.221506132E+01 -0.414538966E+01  0.250001958E+01
   N  0.348243518E+01 -0.268206035E+01  0.249978051E+01
   C -0.155962131E+01  0.331746317E+01  0.250017016E+01
   C  0.347345117E+01  0.250566345E+01  0.249975698E+01
   C -0.434811160E+01  0.156101245E+00  0.249971488E+01
   C -0.708910987E+03 -0.596031197E+03  0.249972602E+01
   H -0.151060887E+02  0.114801778E+02  0.249390089E+01
   H  0.100943126E+02  0.146457360E+02  0.249358125E+01
   H -0.174687557E+02 -0.221010548E+01  0.249232014E+01
   H  0.128768436E+02 -0.107709468E+02  0.249328250E+01
  Xx -0.494090176E+03  0.473227168E+03  0.249962648E+01
    11
 # iter = 24750  time[fs]=24.75000
   N -0.223292300E+01 -0.418564889E+01  0.250002211E+01
   N  0.351773873E+01 -0.270208965E+01  0.249978280E+01
   C -0.156983513E+01  0.334826428E+01  0.250017227E+01
   C  0.350990068E+01  0.252258730E+01  0.249975475E+01
   C -0.438886366E+01  0.157786663E+00  0.249971266E+01
   C -0.716278871E+03 -0.602214394E+03  0.249972314E+01
   H -0.152694863E+02  0.116000643E+02  0.249381785E+01
   H  0.102050228E+02  0.148024822E+02  0.249349108E+01
   H -0.176588778E+02 -0.224053454E+01  0.249221071E+01
   H  0.130114487E+02 -0.108960873E+02  0.249319051E+01
  Xx -0.499229549E+03  0.478136469E+03  0.249962254E+01
    11
 # iter = 25000  time[fs]=25.00000
   N -0.225080786E+01 -0.422601133E+01  0.250002449E+01
   N  0.355303136E+01 -0.272220638E+01  0.249978543E+01
   C -0.158003295E+01  0.337911533E+01  0.250017480E+01
   C  0.354645595E+01  0.253956523E+01  0.249975250E+01
   C -0.442967143E+01  0.159483756E+00  0.249971039E+01
   C -0.723646755E+03 -0.608397590E+03  0.249972026E+01
   H -0.154329902E+02  0.117200726E+02  0.249373481E+01
   H  0.103158276E+02  0.149593619E+02  0.249340092E+01
   H -0.178491686E+02 -0.227102555E+01  0.249210129E+01
   H  0.131461916E+02 -0.110213485E+02  0.249309852E+01
  Xx -0.504368922E+03  0.483045769E+03  0.249961860E+01
    11
 # iter = 25250  time[fs]=25.25000
   N -0.226868423E+01 -0.426645825E+01  0.250002756E+01
   N  0.358828768E+01 -0.274237646E+01  0.249978830E+01
   C -0.159023022E+01  0.341001896E+01  0.250017704E+01
   C  0.358299670E+01  0.255652093E+01  0.249974971E+01
   C -0.447051919E+01  0.161165121E+00  0.249970787E+01
   C -0.731014639E+03 -0.614580787E+03  0.249971737E+01
   H -0.155965973E+02  0.118402007E+02  0.249365177E+01
   H  0.104267255E+02  0.151163717E+02  0.249331075E+01
   H -0.180396280E+02 -0.230157701E+01  0.249199187E+01
   H  0.132810703E+02 -0.111467287E+02  0.249300653E+01
  Xx -0.509508294E+03  0.487955070E+03  0.249961466E+01
    11
 # iter = 25500  time[fs]=25.50000
   N -0.228653750E+01 -0.430693352E+01  0.250003012E+01
   N  0.362351006E+01 -0.276257241E+01  0.249979180E+01
   C -0.160043336E+01  0.344097945E+01  0.250017871E+01
   C  0.361962176E+01  0.257355707E+01  0.249974687E+01
   C -0.451144026E+01  0.162865464E+00  0.249970572E+01
   C -0.738382523E+03 -0.620763984E+03  0.249971449E+01
   H -0.157603064E+02  0.119604455E+02  0.249356873E+01
   H  0.105377136E+02  0.152735070E+02  0.249322059E+01
   H -0.182302502E+02 -0.233218764E+01  0.249188244E+01
   H  0.134160815E+02 -0.112722248E+02  0.249291455E+01
  Xx -0.514647667E+03  0.492864371E+03  0.249961072E+01
    11
 # iter = 25750  time[fs]=25.75000
   N -0.230436365E+01 -0.434739518E+01  0.250003281E+01
   N  0.365874645E+01 -0.278277442E+01  0.249979511E+01
   C -0.161061121E+01  0.347199900E+01  0.250018045E+01
   C  0.365624788E+01  0.259055840E+01  0.249974472E+01
   C -0.455238547E+01  0.164558116E+00  0.249970309E+01
   C -0.745750407E+03 -0.626947180E+03  0.249971161E+01
   H -0.159241163E+02  0.120808056E+02  0.249348569E+01
   H  0.106487906E+02  0.154307667E+02  0.249313043E+01
   H -0.184210324E+02 -0.236285693E+01  0.249177302E+01
   H  0.135512220E+02 -0.113978360E+02  0.249282256E+01
  Xx -0.519787040E+03  0.497773671E+03  0.249960678E+01
    11
 # iter = 26000  time[fs]=26.00000
   N -0.232215041E+01 -0.438786824E+01  0.250003538E+01
   N  0.369405352E+01 -0.280297248E+01  0.249979814E+01
   C -0.162080697E+01  0.350306846E+01  0.250018220E+01
   C  0.369295118E+01  0.260763384E+01  0.249974209E+01
   C -0.459337369E+01  0.166245120E+00  0.249970092E+01
   C -0.753118291E+03 -0.633130377E+03  0.249970873E+01
   H -0.160880240E+02  0.122012781E+02  0.249340265E+01
   H  0.107599563E+02  0.155881506E+02  0.249304026E+01
   H -0.186119741E+02 -0.239358403E+01  0.249166360E+01
   H  0.136864899E+02 -0.115235591E+02  0.249273057E+01
  Xx -0.524926412E+03  0.502682972E+03  0.249960284E+01
    11
 # iter = 26250  time[fs]=26.25000
   N -0.233988815E+01 -0.442840689E+01  0.250003769E+01
   N  0.372942818E+01 -0.282314654E+01  0.249980136E+01
   C -0.163098482E+01  0.353418657E+01  0.250018423E+01
   C  0.372967709E+01  0.262469262E+01  0.249973972E+01
   C -0.463441381E+01  0.167931735E+00  0.249969849E+01
   C -0.760486175E+03 -0.639313574E+03  0.249970584E+01
   H -0.162520293E+02  0.123218614E+02  0.249331961E+01
   H  0.108712091E+02  0.157456559E+02  0.249295010E+01
   H -0.188030694E+02 -0.242436794E+01  0.249155417E+01
   H  0.138218824E+02 -0.116493931E+02  0.249263858E+01
  Xx -0.530065785E+03  0.507592272E+03  0.249959890E+01
    11
 # iter = 26500  time[fs]=26.50000
   N -0.235757460E+01 -0.446902883E+01  0.250004007E+01
   N  0.376484020E+01 -0.284328694E+01  0.249980526E+01
   C -0.164118423E+01  0.356534317E+01  0.250018602E+01
   C  0.376645168E+01  0.264180457E+01  0.249973724E+01
   C -0.467547670E+01  0.169611485E+00  0.249969647E+01
   C -0.767854059E+03 -0.645496770E+03  0.249970296E+01
   H -0.164161324E+02  0.124425524E+02  0.249323657E+01
   H  0.109825462E+02  0.159032810E+02  0.249285994E+01
   H -0.189943157E+02 -0.245520750E+01  0.249144475E+01
   H  0.139573976E+02 -0.117753376E+02  0.249254659E+01
  Xx -0.535205158E+03  0.512501573E+03  0.249959496E+01
    11
 # iter = 26750  time[fs]=26.75000
   N -0.237525115E+01 -0.450972620E+01  0.250004222E+01
   N  0.380024515E+01 -0.286340351E+01  0.249980941E+01
   C -0.165137616E+01  0.359655246E+01  0.250018757E+01
   C  0.380325809E+01  0.265894443E+01  0.249973445E+01
   C -0.471661019E+01  0.171281907E+00  0.249969449E+01
   C -0.775221943E+03 -0.651679967E+03  0.249970008E+01
   H -0.165803288E+02  0.125633497E+02  0.249315353E+01
   H  0.110939674E+02  0.160610230E+02  0.249276977E+01
   H -0.191857106E+02 -0.248610185E+01  0.249133533E+01
   H  0.140930328E+02 -0.119013891E+02  0.249245460E+01
  Xx -0.540344531E+03  0.517410874E+03  0.249959103E+01
    11
 # iter = 27000  time[fs]=27.00000
   N -0.239294570E+01 -0.455045674E+01  0.250004385E+01
   N  0.383562223E+01 -0.288353151E+01  0.249981373E+01
   C -0.166156712E+01  0.362778847E+01  0.250018915E+01
   C  0.384010769E+01  0.267610731E+01  0.249973183E+01
   C -0.475776543E+01  0.172955541E+00  0.249969209E+01
   C -0.782589827E+03 -0.657863163E+03  0.249969720E+01
   H -0.167446141E+02  0.126842502E+02  0.249307049E+01
   H  0.112054703E+02  0.162188805E+02  0.249267961E+01
   H -0.193772479E+02 -0.251705030E+01  0.249122590E+01
   H  0.142287858E+02 -0.120275471E+02  0.249236261E+01
  Xx -0.545483903E+03  0.522320174E+03  0.249958709E+01
    11
 # iter = 27250  time[fs]=27.25000
   N -0.241066621E+01 -0.459117574E+01  0.250004554E+01
   N  0.387097770E+01 -0.290370292E+01  0.249981760E+01
   C -0.167178086E+01  0.365907419E+01  0.250019045E+01
   C  0.387697825E+01  0.269334014E+01  0.249972943E+01
   C -0.479897303E+01  0.174619406E+00  0.249969009E+01
   C -0.789957711E+03 -0.664046360E+03  0.249969432E+01
   H -0.169089882E+02  0.128052527E+02  0.249298745E+01
   H  0.113170536E+02  0.163768534E+02  0.249258945E+01
   H -0.195689272E+02 -0.254805123E+01  0.249111648E+01
   H  0.143646543E+02 -0.121538090E+02  0.249227063E+01
  Xx -0.550623276E+03  0.527229475E+03  0.249958315E+01
    11
 # iter = 27500  time[fs]=27.50000
   N -0.242841632E+01 -0.463188479E+01  0.250004702E+01
   N  0.390633316E+01 -0.292393308E+01  0.249982175E+01
   C -0.168199022E+01  0.369040277E+01  0.250019183E+01
   C  0.391389663E+01  0.271054943E+01  0.249972678E+01
   C -0.484021471E+01  0.176286414E+00  0.249968791E+01
   C -0.797325596E+03 -0.670229557E+03  0.249969143E+01
   H -0.170734511E+02  0.129263550E+02  0.249290441E+01
   H  0.114287167E+02  0.165349398E+02  0.249249928E+01
   H -0.197607475E+02 -0.257910342E+01  0.249100706E+01
   H  0.145006358E+02 -0.122801730E+02  0.249217864E+01
  Xx -0.555762649E+03  0.532138776E+03  0.249957921E+01
    11
 # iter = 27750  time[fs]=27.75000
   N -0.244621105E+01 -0.467262932E+01  0.250004897E+01
   N  0.394173312E+01 -0.294423535E+01  0.249982651E+01
   C -0.169222364E+01  0.372177710E+01  0.250019368E+01
   C  0.395082730E+01  0.272786013E+01  0.249972460E+01
   C -0.488147660E+01  0.177952601E+00  0.249968632E+01
   C -0.804693480E+03 -0.676412753E+03  0.249968855E+01
   H -0.172380028E+02  0.130475549E+02  0.249282137E+01
   H  0.115404566E+02  0.166931333E+02  0.249240912E+01
   H -0.199527019E+02 -0.261020586E+01  0.249089763E+01
   H  0.146367283E+02 -0.124066384E+02  0.249208665E+01
  Xx -0.560902021E+03  0.537048076E+03  0.249957527E+01
    11
 # iter = 28000  time[fs]=28.00000
   N -0.246405246E+01 -0.471346785E+01  0.250005065E+01
   N  0.397721263E+01 -0.296460957E+01  0.249983197E+01
   C -0.170244610E+01  0.375320830E+01  0.250019517E+01
   C  0.398783501E+01  0.274513254E+01  0.249972212E+01
   C -0.492279488E+01  0.179612714E+00  0.249968446E+01
   C -0.812061364E+03 -0.682595950E+03  0.249968567E+01
   H -0.174026421E+02  0.131688522E+02  0.249273833E+01
   H  0.116522720E+02  0.168514334E+02  0.249231896E+01
   H -0.201447896E+02 -0.264135794E+01  0.249078821E+01
   H  0.147729299E+02 -0.125332019E+02  0.249199466E+01
  Xx -0.566041394E+03  0.541957377E+03  0.249957133E+01
    11
 # iter = 28250  time[fs]=28.25000
   N -0.248193761E+01 -0.475439651E+01  0.250005191E+01
   N  0.401274728E+01 -0.298504752E+01  0.249983700E+01
   C -0.171268798E+01  0.378466590E+01  0.250019667E+01
   C  0.402484058E+01  0.276250626E+01  0.249971957E+01
   C -0.496414435E+01  0.181294199E+00  0.249968270E+01
   C -0.819429248E+03 -0.688779147E+03  0.249968279E+01
   H -0.175673624E+02  0.132902436E+02  0.249265529E+01
   H  0.117641629E+02  0.170098401E+02  0.249222879E+01
   H -0.203370105E+02 -0.267255874E+01  0.249067878E+01
   H  0.149092381E+02 -0.126598627E+02  0.249190267E+01
  Xx -0.571180767E+03  0.546866677E+03  0.249956739E+01
    11
 # iter = 28500  time[fs]=28.50000
   N -0.249984584E+01 -0.479534237E+01  0.250005283E+01
   N  0.404827517E+01 -0.300553074E+01  0.249984153E+01
   C -0.172293831E+01  0.381617921E+01  0.250019763E+01
   C  0.406190760E+01  0.277984242E+01  0.249971681E+01
   C -0.500553106E+01  0.182951191E+00  0.249968077E+01
   C -0.826797132E+03 -0.694962343E+03  0.249967991E+01
   H -0.177321626E+02  0.134117283E+02  0.249257225E+01
   H  0.118761282E+02  0.171683530E+02  0.249213863E+01
   H -0.205293646E+02 -0.270380754E+01  0.249056936E+01
   H  0.150456508E+02 -0.127866175E+02  0.249181068E+01
  Xx -0.576320140E+03  0.551775978E+03  0.249956345E+01
    11
 # iter = 28750  time[fs]=28.75000
   N -0.251775884E+01 -0.483625788E+01  0.250005387E+01
   N  0.408374551E+01 -0.302603803E+01  0.249984610E+01
   C -0.173318146E+01  0.384771111E+01  0.250019848E+01
   C  0.409896776E+01  0.279724009E+01  0.249971409E+01
   C -0.504696395E+01  0.184619922E+00  0.249967816E+01
   C -0.834165016E+03 -0.701145540E+03  0.249967702E+01
   H -0.178970428E+02  0.135333061E+02  0.249248921E+01
   H  0.119881649E+02  0.173269662E+02  0.249204847E+01
   H -0.207218466E+02 -0.273510362E+01  0.249045994E+01
   H  0.151821655E+02 -0.129134653E+02  0.249171869E+01
  Xx -0.581459512E+03  0.556685279E+03  0.249955951E+01
    11
 # iter = 29000  time[fs]=29.00000
   N -0.253565562E+01 -0.487716526E+01  0.250005496E+01
   N  0.411916942E+01 -0.304653653E+01  0.249985132E+01
   C -0.174343419E+01  0.387928089E+01  0.250019972E+01
   C  0.413608571E+01  0.281463536E+01  0.249971177E+01
   C -0.508841846E+01  0.186283501E+00  0.249967665E+01
   C -0.841532900E+03 -0.707328737E+03  0.249967414E+01
   H -0.180620028E+02  0.136549739E+02  0.249240617E+01
   H  0.121002726E+02  0.174856770E+02  0.249195830E+01
   H -0.209144528E+02 -0.276644633E+01  0.249035051E+01
   H  0.153187819E+02 -0.130404039E+02  0.249162671E+01
  Xx -0.586598885E+03  0.561594579E+03  0.249955557E+01
    11
 # iter = 29250  time[fs]=29.25000
   N -0.255350655E+01 -0.491811242E+01  0.250005617E+01
   N  0.415460501E+01 -0.306700958E+01  0.249985749E+01
   C -0.175368241E+01  0.391089200E+01  0.250020067E+01
   C  0.417322004E+01  0.283205382E+01  0.249970876E+01
   C -0.512991014E+01  0.187940768E+00  0.249967451E+01
   C -0.848900784E+03 -0.713511933E+03  0.249967126E+01
   H -0.182270429E+02  0.137767306E+02  0.249232313E+01
   H  0.122124514E+02  0.176444856E+02  0.249186814E+01
   H -0.211071835E+02 -0.279783464E+01  0.249024109E+01
   H  0.154554964E+02 -0.131674315E+02  0.249153472E+01
  Xx -0.591738258E+03  0.566503880E+03  0.249955163E+01
    11
 # iter = 29500  time[fs]=29.50000
   N -0.257131090E+01 -0.495913427E+01  0.250005711E+01
   N  0.419009468E+01 -0.308745870E+01  0.249986383E+01
   C -0.176393880E+01  0.394253219E+01  0.250020192E+01
   C  0.421039892E+01  0.284950900E+01  0.249970603E+01
   C -0.517143969E+01  0.189611275E+00  0.249967282E+01
   C -0.856268668E+03 -0.719695130E+03  0.249966838E+01
   H -0.183921628E+02  0.138985748E+02  0.249224009E+01
   H  0.123246997E+02  0.178033918E+02  0.249177798E+01
   H -0.213000383E+02 -0.282926768E+01  0.249013167E+01
   H  0.155923086E+02 -0.132945479E+02  0.249144273E+01
  Xx -0.596877630E+03  0.571413181E+03  0.249954770E+01
    11
 # iter = 29750  time[fs]=29.75000
   N -0.258908141E+01 -0.500022740E+01  0.250005821E+01
   N  0.422564607E+01 -0.310789844E+01  0.249986993E+01
   C -0.177418710E+01  0.397423774E+01  0.250020350E+01
   C  0.424762325E+01  0.286695791E+01  0.249970298E+01
   C -0.521299201E+01  0.191263287E+00  0.249967067E+01
   C -0.863636552E+03 -0.725878327E+03  0.249966549E+01
   H -0.185573614E+02  0.140205035E+02  0.249215705E+01
   H  0.124370147E+02  0.179623958E+02  0.249168781E+01
   H -0.214930120E+02 -0.286074480E+01  0.249002224E+01
   H  0.157292185E+02 -0.134217531E+02  0.249135074E+01
  Xx -0.602017003E+03  0.576322481E+03  0.249954376E+01
    11
 # iter = 30000  time[fs]=30.00000
   N -0.260682031E+01 -0.504134612E+01  0.250005929E+01
   N  0.426123900E+01 -0.312835194E+01  0.249987553E+01
   C -0.178443539E+01  0.400596295E+01  0.250020472E+01
   C  0.428484723E+01  0.288446655E+01  0.249969952E+01
   C -0.525460094E+01  0.192929892E+00  0.249966806E+01
   C -0.871004436E+03 -0.732061523E+03  0.249966261E+01
   H -0.187226318E+02  0.141425166E+02  0.249207401E+01
   H  0.125493963E+02  0.181214968E+02  0.249159765E+01
   H -0.216861011E+02 -0.289226473E+01  0.248991282E+01
   H  0.158662232E+02 -0.135490466E+02  0.249125875E+01
  Xx -0.607156376E+03  0.581231782E+03  0.249953982E+01
    11
 # iter = 30250  time[fs]=30.25000
   N -0.262452851E+01 -0.508245211E+01  0.250006040E+01
   N  0.429682649E+01 -0.314882669E+01  0.249988124E+01
   C -0.179468464E+01  0.403773892E+01  0.250020596E+01
   C  0.432214561E+01  0.290197893E+01  0.249969699E+01
   C -0.529622426E+01  0.194592365E+00  0.249966607E+01
   C -0.878372320E+03 -0.738244720E+03  0.249965973E+01
   H -0.188879733E+02  0.142646125E+02  0.249199097E+01
   H  0.126618440E+02  0.182806883E+02  0.249150749E+01
   H -0.218793056E+02 -0.292382662E+01  0.248980340E+01
   H  0.160033212E+02 -0.136764251E+02  0.249116676E+01
  Xx -0.612295749E+03  0.586141082E+03  0.249953588E+01
    11
 # iter = 30500  time[fs]=30.50000
   N -0.264222982E+01 -0.512354108E+01  0.250006131E+01
   N  0.433237328E+01 -0.316934112E+01  0.249988767E+01
   C -0.180492551E+01  0.406954200E+01  0.250020702E+01
   C  0.435940415E+01  0.291954412E+01  0.249969362E+01
   C -0.533787976E+01  0.196249532E+00  0.249966322E+01
   C -0.885740204E+03 -0.744427917E+03  0.249965685E+01
   H -0.190533859E+02  0.143867885E+02  0.249190793E+01
   H  0.127743547E+02  0.184399687E+02  0.249141732E+01
   H -0.220726256E+02 -0.295542965E+01  0.248969397E+01
   H  0.161405102E+02 -0.138038880E+02  0.249107477E+01
  Xx -0.617435121E+03  0.591050383E+03  0.249953194E+01
    11
 # iter = 30750  time[fs]=30.75000
   N -0.265995985E+01 -0.516464971E+01  0.250006206E+01
   N  0.436787854E+01 -0.318992666E+01  0.249989443E+01
   C -0.181515798E+01  0.410136625E+01  0.250020825E+01
   C  0.439675630E+01  0.293712991E+01  0.249969122E+01
   C -0.537956969E+01  0.197909484E+00  0.249966096E+01
   C -0.893108088E+03 -0.750611113E+03  0.249965397E+01
   H -0.192188695E+02  0.145090445E+02  0.249182489E+01
   H  0.128869276E+02  0.185993378E+02  0.249132716E+01
   H -0.222660604E+02 -0.298707326E+01  0.248958455E+01
   H  0.162777879E+02 -0.139314350E+02  0.249098278E+01
  Xx -0.622574494E+03  0.595959684E+03  0.249952800E+01
    11
 # iter = 31000  time[fs]=31.00000
   N -0.267774319E+01 -0.520583152E+01  0.250006293E+01
   N  0.440338474E+01 -0.321058767E+01  0.249990057E+01
   C -0.182538163E+01  0.413323200E+01  0.250020991E+01
   C  0.443407255E+01  0.295473398E+01  0.249968799E+01
   C -0.542127145E+01  0.199566455E+00  0.249965819E+01
   C -0.900475972E+03 -0.756794310E+03  0.249965108E+01
   H -0.193844242E+02  0.146313802E+02  0.249174185E+01
   H  0.129995626E+02  0.187587958E+02  0.249123700E+01
   H -0.224596034E+02 -0.301875675E+01  0.248947512E+01
   H  0.164151545E+02 -0.140590628E+02  0.249089080E+01
  Xx -0.627713867E+03  0.600868984E+03  0.249952406E+01
    11
 # iter = 31250  time[fs]=31.25000
   N -0.269557520E+01 -0.524708603E+01  0.250006401E+01
   N  0.443894633E+01 -0.323130492E+01  0.249990600E+01
   C -0.183560832E+01  0.416510991E+01  0.250021144E+01
   C  0.447147925E+01  0.297239933E+01  0.249968521E+01
   C -0.546302892E+01  0.201222924E+00  0.249965586E+01
   C -0.907843856E+03 -0.762977507E+03  0.249964820E+01
   H -0.195500499E+02  0.147537927E+02  0.249165881E+01
   H  0.131122598E+02  0.189183426E+02  0.249114683E+01
   H -0.226532530E+02 -0.305047933E+01  0.248936570E+01
   H  0.165526099E+02 -0.141867706E+02  0.249079881E+01
  Xx -0.632853239E+03  0.605778285E+03  0.249952012E+01
    11
 # iter = 31500  time[fs]=31.50000
   N -0.271345341E+01 -0.528835877E+01  0.250006542E+01
   N  0.447457962E+01 -0.325205817E+01  0.249991196E+01
   C -0.184582054E+01  0.419704228E+01  0.250021302E+01
   C  0.450886240E+01  0.299004339E+01  0.249968278E+01
   C -0.550479727E+01  0.202892586E+00  0.249965392E+01
   C -0.915211740E+03 -0.769160703E+03  0.249964532E+01
   H -0.197157467E+02  0.148762806E+02  0.249157577E+01
   H  0.132250189E+02  0.190779779E+02  0.249105667E+01
   H -0.228470091E+02 -0.308224071E+01  0.248925628E+01
   H  0.166901541E+02 -0.143145583E+02  0.249070682E+01
  Xx -0.637992612E+03  0.610687585E+03  0.249951618E+01
    11
 # iter = 31750  time[fs]=31.75000
   N -0.273137632E+01 -0.532960685E+01  0.250006616E+01
   N  0.451025961E+01 -0.327282398E+01  0.249991821E+01
   C -0.185603749E+01  0.422899341E+01  0.250021438E+01
   C  0.454631134E+01  0.300778189E+01  0.249967968E+01
   C -0.554659870E+01  0.204554010E+00  0.249965139E+01
   C -0.922579624E+03 -0.775343900E+03  0.249964244E+01
   H -0.198815126E+02  0.149988441E+02  0.249149273E+01
   H  0.133378366E+02  0.192376955E+02  0.249096651E+01
   H -0.230408718E+02 -0.311404012E+01  0.248914685E+01
   H  0.168277871E+02 -0.144424253E+02  0.249061483E+01
  Xx -0.643131985E+03  0.615596886E+03  0.249951224E+01
    11
 # iter = 32000  time[fs]=32.00000
   N -0.274933190E+01 -0.537084343E+01  0.250006675E+01
   N  0.454593953E+01 -0.329359266E+01  0.249992507E+01
   C -0.186624604E+01  0.426098318E+01  0.250021535E+01
   C  0.458375359E+01  0.302546905E+01  0.249967724E+01
   C -0.558842627E+01  0.206227913E+00  0.249964938E+01
   C -0.929947508E+03 -0.781527097E+03  0.249963956E+01
   H -0.200473412E+02  0.151214825E+02  0.249140969E+01
   H  0.134507121E+02  0.193974930E+02  0.249087634E+01
   H -0.232348412E+02 -0.314587696E+01  0.248903743E+01
   H  0.169655057E+02 -0.145703684E+02  0.249052284E+01
  Xx -0.648271358E+03  0.620506187E+03  0.249950831E+01
    11
 # iter = 32250  time[fs]=32.25000
   N -0.276728855E+01 -0.541210614E+01  0.250006736E+01
   N  0.458157429E+01 -0.331433935E+01  0.249993155E+01
   C -0.187646556E+01  0.429300848E+01  0.250021660E+01
   C  0.462123534E+01  0.304324638E+01  0.249967394E+01
   C -0.563026380E+01  0.207906740E+00  0.249964671E+01
   C -0.937315392E+03 -0.787710293E+03  0.249963667E+01
   H -0.202132320E+02  0.152441925E+02  0.249132665E+01
   H  0.135636453E+02  0.195573704E+02  0.249078618E+01
   H -0.234289156E+02 -0.317775049E+01  0.248892801E+01
   H  0.171033054E+02 -0.146983870E+02  0.249043085E+01
  Xx -0.653410730E+03  0.625415487E+03  0.249950437E+01
    11
 # iter = 32500  time[fs]=32.50000
   N -0.278522158E+01 -0.545342692E+01  0.250006804E+01
   N  0.461715588E+01 -0.333505075E+01  0.249993742E+01
   C -0.188669132E+01  0.432504614E+01  0.250021741E+01
   C  0.465873125E+01  0.306098149E+01  0.249967133E+01
   C -0.567214730E+01  0.209577020E+00  0.249964482E+01
   C -0.944683276E+03 -0.793893490E+03  0.249963379E+01
   H -0.203791849E+02  0.153669736E+02  0.249124360E+01
   H  0.136766362E+02  0.197173277E+02  0.249069602E+01
   H -0.236230887E+02 -0.320966054E+01  0.248881858E+01
   H  0.172411851E+02 -0.148264811E+02  0.249033886E+01
  Xx -0.658550103E+03  0.630324788E+03  0.249950043E+01
    11
 # iter = 32750  time[fs]=32.75000
   N -0.280311662E+01 -0.549480998E+01  0.250006882E+01
   N  0.465272486E+01 -0.335573284E+01  0.249994333E+01
   C -0.189691030E+01  0.435711729E+01  0.250021827E+01
   C  0.469626379E+01  0.307877432E+01  0.249966884E+01
   C -0.571405663E+01  0.211270102E+00  0.249964227E+01
   C -0.952051160E+03 -0.800076687E+03  0.249963091E+01
   H -0.205452000E+02  0.154898257E+02  0.249116056E+01
   H  0.137896849E+02  0.198773650E+02  0.249060585E+01
   H -0.238173594E+02 -0.324160631E+01  0.248870916E+01
   H  0.173791448E+02 -0.149546498E+02  0.249024688E+01
  Xx -0.663689476E+03  0.635234089E+03  0.249949649E+01
    11
 # iter = 33000  time[fs]=33.00000
   N -0.282096241E+01 -0.553622151E+01  0.250006944E+01
   N  0.468834235E+01 -0.337640864E+01  0.249994982E+01
   C -0.190714787E+01  0.438919773E+01  0.250021909E+01
   C  0.473381563E+01  0.309655872E+01  0.249966620E+01
   C -0.575599320E+01  0.212949783E+00  0.249964002E+01
   C -0.959419044E+03 -0.806259883E+03  0.249962803E+01
   H -0.207112773E+02  0.156127489E+02  0.249107752E+01
   H  0.139027901E+02  0.200374823E+02  0.249051569E+01
   H -0.240117278E+02 -0.327358760E+01  0.248859974E+01
   H  0.175171843E+02 -0.150828898E+02  0.249015489E+01
  Xx -0.668828848E+03  0.640143389E+03  0.249949255E+01
    11
 # iter = 33250  time[fs]=33.25000
   N -0.283875095E+01 -0.557763183E+01  0.250006998E+01
   N  0.472403490E+01 -0.339710983E+01  0.249995674E+01
   C -0.191737240E+01  0.442131746E+01  0.250021986E+01
   C  0.477140578E+01  0.311435565E+01  0.249966393E+01
   C -0.579796235E+01  0.214642136E+00  0.249963788E+01
   C -0.966786928E+03 -0.812443080E+03  0.249962514E+01
   H -0.208774167E+02  0.157357426E+02  0.249099448E+01
   H  0.140159488E+02  0.201976794E+02  0.249042553E+01
   H -0.242061939E+02 -0.330560430E+01  0.248849031E+01
   H  0.176553038E+02 -0.152112008E+02  0.249006290E+01
  Xx -0.673968221E+03  0.645052690E+03  0.249948861E+01
    11
 # iter = 33500  time[fs]=33.50000
   N -0.285649682E+01 -0.561902453E+01  0.250007034E+01
   N  0.475976686E+01 -0.341786037E+01  0.249996382E+01
   C -0.192761976E+01  0.445346840E+01  0.250022078E+01
   C  0.480899612E+01  0.313218882E+01  0.249966096E+01
   C -0.583994006E+01  0.216335177E+00  0.249963523E+01
   C -0.974154812E+03 -0.818626277E+03  0.249962226E+01
   H -0.210436184E+02  0.158588036E+02  0.249091144E+01
   H  0.141291608E+02  0.203579546E+02  0.249033536E+01
   H -0.244007577E+02 -0.333765558E+01  0.248838089E+01
   H  0.177935033E+02 -0.153395830E+02  0.248997091E+01
  Xx -0.679107594E+03  0.649961990E+03  0.249948467E+01
    11
 # iter = 33750  time[fs]=33.75000
   N -0.287422917E+01 -0.566042011E+01  0.250007085E+01
   N  0.479548504E+01 -0.343867181E+01  0.249996998E+01
   C -0.193785761E+01  0.448565249E+01  0.250022158E+01
   C  0.484664336E+01  0.315000924E+01  0.249965864E+01
   C -0.588194410E+01  0.218014736E+00  0.249963362E+01
   C -0.981522696E+03 -0.824809473E+03  0.249961938E+01
   H -0.212098822E+02  0.159819312E+02  0.249082840E+01
   H  0.142424261E+02  0.205183014E+02  0.249024520E+01
   H -0.245954193E+02 -0.336974116E+01  0.248827147E+01
   H  0.179317813E+02 -0.154680351E+02  0.248987892E+01
  Xx -0.684246967E+03  0.654871291E+03  0.249948073E+01
    11
 # iter = 34000  time[fs]=34.00000
   N -0.289196581E+01 -0.570187272E+01  0.250007115E+01
   N  0.483115365E+01 -0.345955172E+01  0.249997599E+01
   C -0.194810636E+01  0.451786872E+01  0.250022239E+01
   C  0.488426485E+01  0.316790413E+01  0.249965578E+01
   C -0.592398156E+01  0.219713434E+00  0.249963093E+01
   C -0.988890580E+03 -0.830992670E+03  0.249961650E+01
   H -0.213762081E+02  0.161051238E+02  0.249074536E+01
   H  0.143557447E+02  0.206787193E+02  0.249015503E+01
   H -0.247901783E+02 -0.340186020E+01  0.248816204E+01
   H  0.180701340E+02 -0.155965546E+02  0.248978693E+01
  Xx -0.689386339E+03  0.659780592E+03  0.249947679E+01
    11
 # iter = 34250  time[fs]=34.25000
   N -0.290971783E+01 -0.574339461E+01  0.250007107E+01
   N  0.486678575E+01 -0.348048979E+01  0.249998230E+01
   C -0.195837657E+01  0.455010146E+01  0.250022320E+01
   C  0.492197171E+01  0.318577092E+01  0.249965303E+01
   C -0.596603559E+01  0.221403967E+00  0.249962933E+01
   C -0.996258464E+03 -0.837175867E+03  0.249961362E+01
   H -0.215425963E+02  0.162283787E+02  0.249066232E+01
   H  0.144691165E+02  0.208392082E+02  0.249006487E+01
   H -0.249850287E+02 -0.343401228E+01  0.248805262E+01
   H  0.182085582E+02 -0.157251409E+02  0.248969494E+01
  Xx -0.694525712E+03  0.664689892E+03  0.249947285E+01
    11
 # iter = 34500  time[fs]=34.50000
   N -0.292750691E+01 -0.578494489E+01  0.250007119E+01
   N  0.490241703E+01 -0.350147110E+01  0.249998929E+01
   C -0.196864334E+01  0.458236057E+01  0.250022391E+01
   C  0.495964200E+01  0.320371799E+01  0.249965048E+01
   C -0.600813770E+01  0.223105815E+00  0.249962761E+01
   C -0.100362635E+04 -0.843359063E+03  0.249961073E+01
   H -0.217090462E+02  0.163516957E+02  0.249057928E+01
   H  0.145825409E+02  0.209997682E+02  0.248997471E+01
   H -0.251799679E+02 -0.346619661E+01  0.248794319E+01
   H  0.183470535E+02 -0.158537937E+02  0.248960296E+01
  Xx -0.699665085E+03  0.669599193E+03  0.249946891E+01
    11
 # iter = 34750  time[fs]=34.75000
   N -0.294536256E+01 -0.582648366E+01  0.250007094E+01
   N  0.493808483E+01 -0.352247056E+01  0.249999626E+01
   C -0.197893624E+01  0.461463464E+01  0.250022482E+01
   C  0.499740647E+01  0.322164315E+01  0.249964753E+01
   C -0.605025057E+01  0.224814957E+00  0.249962589E+01
   C -0.101099423E+04 -0.849542260E+03  0.249960785E+01
   H -0.218755515E+02  0.164750748E+02  0.249049624E+01
   H  0.146960146E+02  0.211603992E+02  0.248988454E+01
   H -0.253749960E+02 -0.349841284E+01  0.248783377E+01
   H  0.184856198E+02 -0.159825132E+02  0.248951097E+01
  Xx -0.704804457E+03  0.674508494E+03  0.249946498E+01
    11
 # iter = 35000  time[fs]=35.00000
   N -0.296328525E+01 -0.586800170E+01  0.250007068E+01
   N  0.497381572E+01 -0.354345746E+01  0.250000273E+01
   C -0.198921608E+01  0.464693875E+01  0.250022557E+01
   C  0.503512926E+01  0.323963018E+01  0.249964485E+01
   C -0.609238374E+01  0.226518827E+00  0.249962485E+01
   C -0.101836212E+04 -0.855725457E+03  0.249960497E+01
   H -0.220421101E+02  0.165985162E+02  0.249041320E+01
   H  0.148095371E+02  0.213211013E+02  0.248979438E+01
   H -0.255701128E+02 -0.353066019E+01  0.248772435E+01
   H  0.186242572E+02 -0.161112976E+02  0.248941898E+01
  Xx -0.709943830E+03  0.679417794E+03  0.249946104E+01
    11
 # iter = 35250  time[fs]=35.25000
   N -0.298124334E+01 -0.590953132E+01  0.250007033E+01
   N  0.500959498E+01 -0.356440190E+01  0.250000864E+01
   C -0.199950795E+01  0.467926972E+01  0.250022612E+01
   C  0.507292101E+01  0.325761713E+01  0.249964210E+01
   C -0.613454710E+01  0.228230430E+00  0.249962295E+01
   C -0.102573000E+04 -0.861908653E+03  0.249960209E+01
   H -0.222087220E+02  0.167220197E+02  0.249033016E+01
   H  0.149231085E+02  0.214818744E+02  0.248970422E+01
   H -0.257653185E+02 -0.356293863E+01  0.248761492E+01
   H  0.187629656E+02 -0.162401442E+02  0.248932699E+01
  Xx -0.715083203E+03  0.684327095E+03  0.249945710E+01
    11
 # iter = 35500  time[fs]=35.50000
   N -0.299921833E+01 -0.595111224E+01  0.250006974E+01
   N  0.504537311E+01 -0.358529907E+01  0.250001502E+01
   C -0.200980518E+01  0.471163822E+01  0.250022667E+01
   C  0.511068875E+01  0.327562611E+01  0.249963956E+01
   C -0.617671410E+01  0.229939848E+00  0.249962188E+01
   C -0.103309788E+04 -0.868091850E+03  0.249959921E+01
   H -0.223753871E+02  0.168455854E+02  0.249024712E+01
   H  0.150367287E+02  0.216427186E+02  0.248961405E+01
   H -0.259606130E+02 -0.359524768E+01  0.248750550E+01
   H  0.189017451E+02 -0.163690530E+02  0.248923500E+01
  Xx -0.720222576E+03  0.689236395E+03  0.249945316E+01
    11
 # iter = 35750  time[fs]=35.75000
   N -0.301719521E+01 -0.599275176E+01  0.250006884E+01
   N  0.508111009E+01 -0.360617411E+01  0.250002177E+01
   C -0.202008796E+01  0.474403449E+01  0.250022717E+01
   C  0.514850390E+01  0.329366400E+01  0.249963688E+01
   C -0.621893158E+01  0.231639515E+00  0.249962024E+01
   C -0.104046577E+04 -0.874275047E+03  0.249959632E+01
   H -0.225421056E+02  0.169692132E+02  0.249016408E+01
   H  0.151503978E+02  0.218036338E+02  0.248952389E+01
   H -0.261559964E+02 -0.362758671E+01  0.248739608E+01
   H  0.190405957E+02 -0.164980240E+02  0.248914301E+01
  Xx -0.725361948E+03  0.694145696E+03  0.249944922E+01
    11
 # iter = 36000  time[fs]=36.00000
   N -0.303515861E+01 -0.603442487E+01  0.250006819E+01
   N  0.511680423E+01 -0.362705023E+01  0.250002871E+01
   C -0.203038285E+01  0.477645511E+01  0.250022773E+01
   C  0.518633345E+01  0.331169583E+01  0.249963416E+01
   C -0.626116025E+01  0.233347901E+00  0.249961910E+01
   C -0.104783365E+04 -0.880458243E+03  0.249959344E+01
   H -0.227088774E+02  0.170929032E+02  0.249008104E+01
   H  0.152641157E+02  0.219646201E+02  0.248943373E+01
   H -0.263514675E+02 -0.365995572E+01  0.248728665E+01
   H  0.191795173E+02 -0.166270572E+02  0.248905102E+01
  Xx -0.730501321E+03  0.699054997E+03  0.249944528E+01
    11
 # iter = 36250  time[fs]=36.25000
   N -0.305308358E+01 -0.607608919E+01  0.250006725E+01
   N  0.515249715E+01 -0.364793454E+01  0.250003502E+01
   C -0.204065881E+01  0.480890025E+01  0.250022833E+01
   C  0.522418501E+01  0.332976693E+01  0.249963113E+01
   C -0.630341353E+01  0.235047797E+00  0.249961781E+01
   C -0.105520154E+04 -0.886641440E+03  0.249959056E+01
   H -0.228757024E+02  0.172166554E+02  0.248999800E+01
   H  0.153778825E+02  0.221256775E+02  0.248934356E+01
   H -0.265470197E+02 -0.369235410E+01  0.248717723E+01
   H  0.193185099E+02 -0.167561525E+02  0.248895903E+01
  Xx -0.735640694E+03  0.703964297E+03  0.249944134E+01
    11
 # iter = 36500  time[fs]=36.50000
   N -0.307095082E+01 -0.611771934E+01  0.250006630E+01
   N  0.518823262E+01 -0.366885162E+01  0.250004099E+01
   C -0.205094549E+01  0.484135510E+01  0.250022865E+01
   C  0.526208317E+01  0.334782340E+01  0.249962891E+01
   C -0.634569401E+01  0.236745850E+00  0.249961637E+01
   C -0.106256942E+04 -0.892824637E+03  0.249958768E+01
   H -0.230425808E+02  0.173404696E+02  0.248991496E+01
   H  0.154916980E+02  0.222868012E+02  0.248925340E+01
   H -0.267426519E+02 -0.372478133E+01  0.248706781E+01
   H  0.194575723E+02 -0.168853100E+02  0.248886705E+01
  Xx -0.740780066E+03  0.708873598E+03  0.249943740E+01
    11
 # iter = 36750  time[fs]=36.75000
   N -0.308876371E+01 -0.615934698E+01  0.250006544E+01
   N  0.522403008E+01 -0.368984218E+01  0.250004720E+01
   C -0.206122563E+01  0.487384437E+01  0.250022914E+01
   C  0.529996066E+01  0.336591118E+01  0.249962591E+01
   C -0.638797768E+01  0.238451662E+00  0.249961559E+01
   C -0.106993730E+04 -0.899007833E+03  0.249958479E+01
   H -0.232095124E+02  0.174643399E+02  0.248983192E+01
   H  0.156055591E+02  0.224479871E+02  0.248916324E+01
   H -0.269383639E+02 -0.375723744E+01  0.248695838E+01
   H  0.195966976E+02 -0.170145296E+02  0.248877506E+01
  Xx -0.745919439E+03  0.713782899E+03  0.249943346E+01
    11
 # iter = 37000  time[fs]=37.00000
   N -0.310653519E+01 -0.620102865E+01  0.250006413E+01
   N  0.525986446E+01 -0.371091795E+01  0.250005381E+01
   C -0.207149499E+01  0.490634694E+01  0.250022950E+01
   C  0.533790496E+01  0.338401488E+01  0.249962365E+01
   C -0.643030228E+01  0.240135897E+00  0.249961408E+01
   C -0.107730519E+04 -0.905191030E+03  0.249958191E+01
   H -0.233764973E+02  0.175882635E+02  0.248974888E+01
   H  0.157194647E+02  0.226092352E+02  0.248907307E+01
   H -0.271341560E+02 -0.378972217E+01  0.248684896E+01
   H  0.197358852E+02 -0.171438115E+02  0.248868307E+01
  Xx -0.751058812E+03  0.718692199E+03  0.249942952E+01
    11
 # iter = 37250  time[fs]=37.25000
   N -0.312428185E+01 -0.624278018E+01  0.250006338E+01
   N  0.529569020E+01 -0.373205938E+01  0.250006080E+01
   C -0.208177001E+01  0.493888749E+01  0.250022983E+01
   C  0.537581246E+01  0.340212840E+01  0.249962019E+01
   C -0.647264958E+01  0.241834473E+00  0.249961344E+01
   C -0.108467307E+04 -0.911374227E+03  0.249957903E+01
   H -0.235435356E+02  0.177122404E+02  0.248966584E+01
   H  0.158334147E+02  0.227705455E+02  0.248898291E+01
   H -0.273300279E+02 -0.382223472E+01  0.248673954E+01
   H  0.198751349E+02 -0.172731555E+02  0.248859108E+01
  Xx -0.756198185E+03  0.723601500E+03  0.249942558E+01
    11
 # iter = 37500  time[fs]=37.50000
   N -0.314202782E+01 -0.628456167E+01  0.250006247E+01
   N  0.533146476E+01 -0.375323148E+01  0.250006707E+01
   C -0.209203067E+01  0.497145394E+01  0.250023040E+01
   C  0.541379105E+01  0.342029666E+01  0.249961750E+01
   C -0.651502484E+01  0.243526676E+00  0.249961221E+01
   C -0.109204096E+04 -0.917557423E+03  0.249957615E+01
   H -0.237106271E+02  0.178362705E+02  0.248958280E+01
   H  0.159474091E+02  0.229319179E+02  0.248889275E+01
   H -0.275259798E+02 -0.385477502E+01  0.248663011E+01
   H  0.200144468E+02 -0.174025617E+02  0.248849909E+01
  Xx -0.761337557E+03  0.728510800E+03  0.249942165E+01
    11
 # iter = 37750  time[fs]=37.75000
   N -0.315980680E+01 -0.632632132E+01  0.250006132E+01
   N  0.536719078E+01 -0.377441472E+01  0.250007273E+01
   C -0.210230080E+01  0.500404439E+01  0.250023073E+01
   C  0.545175488E+01  0.343844245E+01  0.249961455E+01
   C -0.655742908E+01  0.245213751E+00  0.249961124E+01
   C -0.109940884E+04 -0.923740620E+03  0.249957327E+01
   H -0.238777719E+02  0.179603540E+02  0.248949976E+01
   H  0.160614479E+02  0.230933525E+02  0.248880258E+01
   H -0.277220117E+02 -0.388734307E+01  0.248652069E+01
   H  0.201538209E+02 -0.175320282E+02  0.248840710E+01
  Xx -0.766476930E+03  0.733420101E+03  0.249941771E+01
    11
 # iter = 38000  time[fs]=38.00000
   N -0.317763527E+01 -0.636805569E+01  0.250005998E+01
   N  0.540292372E+01 -0.379559006E+01  0.250007847E+01
   C -0.211255957E+01  0.503667348E+01  0.250023124E+01
   C  0.548977645E+01  0.345667761E+01  0.249961176E+01
   C -0.659983991E+01  0.246915390E+00  0.249961037E+01
   C -0.110677672E+04 -0.929923817E+03  0.249957038E+01
   H -0.240449700E+02  0.180844907E+02  0.248941672E+01
   H  0.161755312E+02  0.232548493E+02  0.248871242E+01
   H -0.279181235E+02 -0.391993820E+01  0.248641126E+01
   H  0.202932571E+02 -0.176615486E+02  0.248831511E+01
  Xx -0.771616303E+03  0.738329402E+03  0.249941377E+01
    11
 # iter = 38250  time[fs]=38.25000
   N -0.319550938E+01 -0.640980602E+01  0.250005840E+01
   N  0.543870970E+01 -0.381673652E+01  0.250008490E+01
   C -0.212281827E+01  0.506930659E+01  0.250023160E+01
   C  0.552780496E+01  0.347485868E+01  0.249960937E+01
   C -0.664227233E+01  0.248590761E+00  0.249960925E+01
   C -0.111414461E+04 -0.936107013E+03  0.249956750E+01
   H -0.242122213E+02  0.182086808E+02  0.248933368E+01
   H  0.162896588E+02  0.234164083E+02  0.248862226E+01
   H -0.281143152E+02 -0.395255997E+01  0.248630184E+01
   H  0.204327555E+02 -0.177911222E+02  0.248822313E+01
  Xx -0.776755675E+03  0.743238702E+03  0.249940983E+01
    11
 # iter = 38500  time[fs]=38.50000
   N -0.321342950E+01 -0.645161172E+01  0.250005706E+01
   N  0.547454655E+01 -0.383783408E+01  0.250009158E+01
   C -0.213307370E+01  0.510197573E+01  0.250023190E+01
   C  0.556585802E+01  0.349314032E+01  0.249960630E+01
   C -0.668473583E+01  0.250277080E+00  0.249960892E+01
   C -0.112151249E+04 -0.942290210E+03  0.249956462E+01
   H -0.243795260E+02  0.183329241E+02  0.248925064E+01
   H  0.164038308E+02  0.235780294E+02  0.248853209E+01
   H -0.283105868E+02 -0.398520839E+01  0.248619242E+01
   H  0.205723161E+02 -0.179207492E+02  0.248813114E+01
  Xx -0.781895048E+03  0.748148003E+03  0.249940589E+01
    11
 # iter = 38750  time[fs]=38.75000
   N -0.323140343E+01 -0.649347378E+01  0.250005578E+01
   N  0.551040873E+01 -0.385888688E+01  0.250009777E+01
   C -0.214333005E+01  0.513465757E+01  0.250023245E+01
   C  0.560392601E+01  0.351136127E+01  0.249960387E+01
   C -0.672721937E+01  0.251951600E+00  0.249960801E+01
   C -0.112888038E+04 -0.948473407E+03  0.249956174E+01
   H -0.245468828E+02  0.184572207E+02  0.248916760E+01
   H  0.165180473E+02  0.237397127E+02  0.248844193E+01
   H -0.285069383E+02 -0.401788326E+01  0.248608299E+01
   H  0.207119389E+02 -0.180504294E+02  0.248803915E+01
  Xx -0.787034421E+03  0.753057304E+03  0.249940195E+01
    11
 # iter = 39000  time[fs]=39.00000
   N -0.324941719E+01 -0.653535709E+01  0.250005439E+01
   N  0.554626305E+01 -0.387992569E+01  0.250010340E+01
   C -0.215359524E+01  0.516736717E+01  0.250023262E+01
   C  0.564200280E+01  0.352966417E+01  0.249960095E+01
   C -0.676974539E+01  0.253617782E+00  0.249960780E+01
   C -0.113624826E+04 -0.954656603E+03  0.249955886E+01
   H -0.247142851E+02  0.185815706E+02  0.248908456E+01
   H  0.166323082E+02  0.239014582E+02  0.248835177E+01
   H -0.287033640E+02 -0.405058468E+01  0.248597357E+01
   H  0.208516238E+02 -0.181801629E+02  0.248794716E+01
  Xx -0.792173793E+03  0.757966604E+03  0.249939801E+01
    11
 # iter = 39250  time[fs]=39.25000
   N -0.326743280E+01 -0.657722372E+01  0.250005266E+01
   N  0.558209171E+01 -0.390098736E+01  0.250010852E+01
   C -0.216386271E+01  0.520011526E+01  0.250023302E+01
   C  0.568010881E+01  0.354793687E+01  0.249959810E+01
   C -0.681228444E+01  0.255294736E+00  0.249960702E+01
   C -0.114361614E+04 -0.960839800E+03  0.249955597E+01
   H -0.248817318E+02  0.187059738E+02  0.248900152E+01
   H  0.167466134E+02  0.240632658E+02  0.248826160E+01
   H -0.288998607E+02 -0.408331140E+01  0.248586415E+01
   H  0.209913709E+02 -0.183099498E+02  0.248785517E+01
  Xx -0.797313166E+03  0.762875905E+03  0.249939407E+01
    11
 # iter = 39500  time[fs]=39.50000
   N -0.328541723E+01 -0.661906144E+01  0.250005091E+01
   N  0.561788921E+01 -0.392209806E+01  0.250011418E+01
   C -0.217414065E+01  0.523287747E+01  0.250023331E+01
   C  0.571823861E+01  0.356624676E+01  0.249959572E+01
   C -0.685483965E+01  0.256952694E+00  0.249960658E+01
   C -0.115098403E+04 -0.967022997E+03  0.249955309E+01
   H -0.250492229E+02  0.188304303E+02  0.248891848E+01
   H  0.168609631E+02  0.242251356E+02  0.248817144E+01
   H -0.290964285E+02 -0.411606255E+01  0.248575472E+01
   H  0.211311802E+02 -0.184397899E+02  0.248776318E+01
  Xx -0.802452539E+03  0.767785205E+03  0.249939013E+01
    11
 # iter = 39750  time[fs]=39.75000
   N -0.330335400E+01 -0.666091063E+01  0.250004948E+01
   N  0.565367495E+01 -0.394327595E+01  0.250012019E+01
   C -0.218442145E+01  0.526568495E+01  0.250023343E+01
   C  0.575638390E+01  0.358456526E+01  0.249959255E+01
   C -0.689742675E+01  0.258619072E+00  0.249960632E+01
   C -0.115835191E+04 -0.973206193E+03  0.249955021E+01
   H -0.252167585E+02  0.189549401E+02  0.248883544E+01
   H  0.169753572E+02  0.243870676E+02  0.248808128E+01
   H -0.292930674E+02 -0.414883812E+01  0.248564530E+01
   H  0.212710517E+02 -0.185696833E+02  0.248767119E+01
  Xx -0.807591912E+03  0.772694506E+03  0.249938619E+01
    11
 # iter = 40000  time[fs]=40.00000
   N -0.332124501E+01 -0.670282056E+01  0.250004781E+01
   N  0.568950279E+01 -0.396452344E+01  0.250012591E+01
   C -0.219472087E+01  0.529849784E+01  0.250023364E+01
   C  0.579457381E+01  0.360288006E+01  0.249959030E+01
   C -0.694002056E+01  0.260281485E+00  0.249960537E+01
   C -0.116571980E+04 -0.979389390E+03  0.249954733E+01
   H -0.253843384E+02  0.190795032E+02  0.248875240E+01
   H  0.170897957E+02  0.245490604E+02  0.248799111E+01
   H -0.294897773E+02 -0.418163812E+01  0.248553588E+01
   H  0.214109853E+02 -0.186996300E+02  0.248757921E+01
  Xx -0.812731284E+03  0.777603807E+03  0.249938225E+01
    11
 # iter = 40250  time[fs]=40.25000
   N -0.333908595E+01 -0.674478930E+01  0.250004592E+01
   N  0.572540438E+01 -0.398582967E+01  0.250013131E+01
   C -0.220502419E+01  0.533133668E+01  0.250023342E+01
   C  0.583273770E+01  0.362123817E+01  0.249958717E+01
   C -0.698266655E+01  0.261936075E+00  0.249960535E+01
   C -0.117308768E+04 -0.985572587E+03  0.249954444E+01
   H -0.255519628E+02  0.192041195E+02  0.248866936E+01
   H  0.172042786E+02  0.247111073E+02  0.248790095E+01
   H -0.296865583E+02 -0.421446254E+01  0.248542645E+01
   H  0.215509776E+02 -0.188296300E+02  0.248748722E+01
  Xx -0.817870657E+03  0.782513107E+03  0.249937832E+01
    11
 # iter = 40500  time[fs]=40.50000
   N -0.335687221E+01 -0.678677533E+01  0.250004378E+01
   N  0.576135164E+01 -0.400717186E+01  0.250013605E+01
   C -0.221534261E+01  0.536419776E+01  0.250023358E+01
   C  0.587097868E+01  0.363957563E+01  0.249958488E+01
   C -0.702532641E+01  0.263595043E+00  0.249960456E+01
   C -0.118045556E+04 -0.991755783E+03  0.249954156E+01
   H -0.257196315E+02  0.193287892E+02  0.248858632E+01
   H  0.173188059E+02  0.248732074E+02  0.248781079E+01
   H -0.298834103E+02 -0.424731139E+01  0.248531703E+01
   H  0.216910233E+02 -0.189596832E+02  0.248739523E+01
  Xx -0.823010030E+03  0.787422408E+03  0.249937438E+01
    11
 # iter = 40750  time[fs]=40.75000
   N -0.337462650E+01 -0.682873832E+01  0.250004174E+01
   N  0.579728141E+01 -0.402852125E+01  0.250014114E+01
   C -0.222566115E+01  0.539707223E+01  0.250023371E+01
   C  0.590916812E+01  0.365796896E+01  0.249958207E+01
   C -0.706801192E+01  0.265241727E+00  0.249960453E+01
   C -0.118782345E+04 -0.997938980E+03  0.249953868E+01
   H -0.258873447E+02  0.194535121E+02  0.248850328E+01
   H  0.174333776E+02  0.250353609E+02  0.248772062E+01
   H -0.300803334E+02 -0.428018466E+01  0.248520761E+01
   H  0.218311223E+02 -0.190897898E+02  0.248730324E+01
  Xx -0.828149402E+03  0.792331709E+03  0.249937044E+01
    11
 # iter = 41000  time[fs]=41.00000
   N -0.339238233E+01 -0.687068593E+01  0.250004013E+01
   N  0.583315750E+01 -0.404984645E+01  0.250014642E+01
   C -0.223597962E+01  0.542999495E+01  0.250023381E+01
   C  0.594746206E+01  0.367634613E+01  0.249957915E+01
   C -0.711072858E+01  0.266883847E+00  0.249960424E+01
   C -0.119519133E+04 -0.100412218E+04  0.249953580E+01
   H -0.260551022E+02  0.195782884E+02  0.248842024E+01
   H  0.175479938E+02  0.251975677E+02  0.248763046E+01
   H -0.302773275E+02 -0.431308235E+01  0.248509818E+01
   H  0.219712746E+02 -0.192199497E+02  0.248721125E+01
  Xx -0.833288775E+03  0.797241009E+03  0.249936650E+01
    11
 # iter = 41250  time[fs]=41.25000
   N -0.341016226E+01 -0.691266464E+01  0.250003856E+01
   N  0.586899389E+01 -0.407111914E+01  0.250015154E+01
   C -0.224630838E+01  0.546293540E+01  0.250023425E+01
   C  0.598570502E+01  0.369477597E+01  0.249957686E+01
   C -0.715345275E+01  0.268522600E+00  0.249960407E+01
   C -0.120255922E+04 -0.101030537E+04  0.249953292E+01
   H -0.262229042E+02  0.197031179E+02  0.248833720E+01
   H  0.176626509E+02  0.253598277E+02  0.248754030E+01
   H -0.304743927E+02 -0.434600448E+01  0.248498876E+01
   H  0.221114802E+02 -0.193501628E+02  0.248711926E+01
  Xx -0.838428148E+03  0.802150310E+03  0.249936256E+01
    11
 # iter = 41500  time[fs]=41.50000
   N -0.342798048E+01 -0.695469321E+01  0.250003646E+01
   N  0.590483808E+01 -0.409233978E+01  0.250015608E+01
   C -0.225662341E+01  0.549592183E+01  0.250023445E+01
   C  0.602404638E+01  0.371321559E+01  0.249957386E+01
   C -0.719623176E+01  0.270148289E+00  0.249960394E+01
   C -0.120992710E+04 -0.101648857E+04  0.249953003E+01
   H -0.263907506E+02  0.198280007E+02  0.248825416E+01
   H  0.177773455E+02  0.255221410E+02  0.248745013E+01
   H -0.306715289E+02 -0.437895102E+01  0.248487933E+01
   H  0.222517391E+02 -0.194804292E+02  0.248702727E+01
  Xx -0.843567521E+03  0.807059610E+03  0.249935862E+01
    11
 # iter = 41750  time[fs]=41.75000
   N -0.344585894E+01 -0.699676600E+01  0.250003428E+01
   N  0.594072566E+01 -0.411353663E+01  0.250016015E+01
   C -0.226695249E+01  0.552893272E+01  0.250023469E+01
   C  0.606234438E+01  0.373168267E+01  0.249957162E+01
   C -0.723902694E+01  0.271773691E+00  0.249960334E+01
   C -0.121729498E+04 -0.102267177E+04  0.249952715E+01
   H -0.265586414E+02  0.199529368E+02  0.248817112E+01
   H  0.178920756E+02  0.256845077E+02  0.248735997E+01
   H -0.308687362E+02 -0.441192195E+01  0.248476991E+01
   H  0.223920513E+02 -0.196107490E+02  0.248693528E+01
  Xx -0.848706893E+03  0.811968911E+03  0.249935468E+01
    11
 # iter = 42000  time[fs]=42.00000
   N -0.346379763E+01 -0.703885819E+01  0.250003211E+01
   N  0.597666182E+01 -0.413474438E+01  0.250016406E+01
   C -0.227726532E+01  0.556196365E+01  0.250023493E+01
   C  0.610070182E+01  0.375018132E+01  0.249956876E+01
   C -0.728186441E+01  0.273395518E+00  0.249960339E+01
   C -0.122466287E+04 -0.102885496E+04  0.249952427E+01
   H -0.267265766E+02  0.200779262E+02  0.248808808E+01
   H  0.180068413E+02  0.258469276E+02  0.248726980E+01
   H -0.310660145E+02 -0.444491581E+01  0.248466049E+01
   H  0.225324167E+02 -0.197411220E+02  0.248684330E+01
  Xx -0.853846266E+03  0.816878212E+03  0.249935074E+01
    11
 # iter = 42250  time[fs]=42.25000
   N -0.348177547E+01 -0.708094298E+01  0.250003026E+01
   N  0.601262838E+01 -0.415597956E+01  0.250016828E+01
   C -0.228757544E+01  0.559502330E+01  0.250023507E+01
   C  0.613904673E+01  0.376867576E+01  0.249956639E+01
   C -0.732472923E+01  0.275003675E+00  0.249960294E+01
   C -0.123203075E+04 -0.103503816E+04  0.249952139E+01
   H -0.268945562E+02  0.202029689E+02  0.248800504E+01
   H  0.181216425E+02  0.260094008E+02  0.248717964E+01
   H -0.312633639E+02 -0.447793188E+01  0.248455106E+01
   H  0.226728355E+02 -0.198715483E+02  0.248675131E+01
  Xx -0.858985639E+03  0.821787512E+03  0.249934680E+01
    11
 # iter = 42500  time[fs]=42.50000
   N -0.349976821E+01 -0.712301891E+01  0.250002815E+01
   N  0.604858745E+01 -0.417726369E+01  0.250017261E+01
   C -0.229788518E+01  0.562809751E+01  0.250023537E+01
   C  0.617742989E+01  0.378721405E+01  0.249956366E+01
   C -0.736761269E+01  0.276617050E+00  0.249960315E+01
   C -0.123939864E+04 -0.104122136E+04  0.249951851E+01
   H -0.270625802E+02  0.203280649E+02  0.248792200E+01
   H  0.182364792E+02  0.261719273E+02  0.248708948E+01
   H -0.314607844E+02 -0.451097015E+01  0.248444164E+01
   H  0.228133075E+02 -0.200020279E+02  0.248665932E+01
  Xx -0.864125011E+03  0.826696813E+03  0.249934286E+01
    11
 # iter = 42750  time[fs]=42.75000
   N -0.351776113E+01 -0.716511181E+01  0.250002588E+01
   N  0.608451399E+01 -0.419862998E+01  0.250017683E+01
   C -0.230816976E+01  0.566121026E+01  0.250023557E+01
   C  0.621584591E+01  0.380573719E+01  0.249956126E+01
   C -0.741054755E+01  0.278214518E+00  0.249960292E+01
   C -0.124676652E+04 -0.104740455E+04  0.249951562E+01
   H -0.272306487E+02  0.204532141E+02  0.248783895E+01
   H  0.183513515E+02  0.263345071E+02  0.248699931E+01
   H -0.316582759E+02 -0.454403062E+01  0.248433222E+01
   H  0.229538328E+02 -0.201325608E+02  0.248656733E+01
  Xx -0.869264384E+03  0.831606114E+03  0.249933892E+01
    11
 # iter = 43000  time[fs]=43.00000
   N -0.353573821E+01 -0.720726153E+01  0.250002376E+01
   N  0.612041220E+01 -0.422008014E+01  0.250018049E+01
   C -0.231846578E+01  0.569435479E+01  0.250023574E+01
   C  0.625426984E+01  0.382429354E+01  0.249955846E+01
   C -0.745350892E+01  0.279816966E+00  0.249960305E+01
   C -0.125413440E+04 -0.105358775E+04  0.249951274E+01
   H -0.273987615E+02  0.205784167E+02  0.248775591E+01
   H  0.184662592E+02  0.264971402E+02  0.248690915E+01
   H -0.318558385E+02 -0.457711330E+01  0.248422279E+01
   H  0.230944114E+02 -0.202631470E+02  0.248647534E+01
  Xx -0.874403757E+03  0.836515414E+03  0.249933499E+01
    11
 # iter = 43250  time[fs]=43.25000
   N -0.355367344E+01 -0.724947447E+01  0.250002192E+01
   N  0.615631150E+01 -0.424158131E+01  0.250018394E+01
   C -0.232873178E+01  0.572754017E+01  0.250023587E+01
   C  0.629275199E+01  0.384285096E+01  0.249955638E+01
   C -0.749652861E+01  0.281410294E+00  0.249960319E+01
   C -0.126150229E+04 -0.105977095E+04  0.249950986E+01
   H -0.275669188E+02  0.207036726E+02  0.248767287E+01
   H  0.185812026E+02  0.266598265E+02  0.248681899E+01
   H -0.320534722E+02 -0.461021818E+01  0.248411337E+01
   H  0.232350434E+02 -0.203937865E+02  0.248638335E+01
  Xx -0.879543130E+03  0.841424715E+03  0.249933105E+01
    11
 # iter = 43500  time[fs]=43.50000
   N -0.357153873E+01 -0.729172091E+01  0.250002001E+01
   N  0.619224926E+01 -0.426309883E+01  0.250018739E+01
   C -0.233899825E+01  0.576076194E+01  0.250023593E+01
   C  0.633121306E+01  0.386141906E+01  0.249955345E+01
   C -0.753958427E+01  0.282999599E+00  0.249960326E+01
   C -0.126887017E+04 -0.106595414E+04  0.249950698E+01
   H -0.277351204E+02  0.208289817E+02  0.248758983E+01
   H  0.186961867E+02  0.268225662E+02  0.248672882E+01
   H -0.322511774E+02 -0.464334527E+01  0.248400395E+01
   H  0.233757286E+02 -0.205244792E+02  0.248629136E+01
  Xx -0.884682502E+03  0.846334015E+03  0.249932711E+01
    11
 # iter = 43750  time[fs]=43.75000
   N -0.358934090E+01 -0.733396348E+01  0.250001775E+01
   N  0.622824976E+01 -0.428460340E+01  0.250019073E+01
   C -0.234925087E+01  0.579401874E+01  0.250023612E+01
   C  0.636973890E+01  0.388002739E+01  0.249955139E+01
   C -0.758268383E+01  0.284592756E+00  0.249960350E+01
   C -0.127623806E+04 -0.107213734E+04  0.249950409E+01
   H -0.279033667E+02  0.209543441E+02  0.248750679E+01
   H  0.188112152E+02  0.269853592E+02  0.248663866E+01
   H -0.324489536E+02 -0.467649456E+01  0.248389452E+01
   H  0.235164670E+02 -0.206552253E+02  0.248619938E+01
  Xx -0.889821875E+03  0.851243316E+03  0.249932317E+01
    11
 # iter = 44000  time[fs]=44.00000
   N -0.360710934E+01 -0.737620682E+01  0.250001524E+01
   N  0.626429904E+01 -0.430608064E+01  0.250019380E+01
   C -0.235948043E+01  0.582730625E+01  0.250023638E+01
   C  0.640825289E+01  0.389861818E+01  0.249954851E+01
   C -0.762583454E+01  0.286175091E+00  0.249960348E+01
   C -0.128360594E+04 -0.107832054E+04  0.249950121E+01
   H -0.280716637E+02  0.210797599E+02  0.248742375E+01
   H  0.189262881E+02  0.271482054E+02  0.248654850E+01
   H -0.326468009E+02 -0.470966606E+01  0.248378510E+01
   H  0.236572623E+02 -0.207860246E+02  0.248610739E+01
  Xx -0.894961248E+03  0.856152617E+03  0.249931923E+01
    11
 # iter = 44250  time[fs]=44.25000
   N -0.362486012E+01 -0.741849012E+01  0.250001301E+01
   N  0.630035472E+01 -0.432751245E+01  0.250019647E+01
   C -0.236971591E+01  0.586062870E+01  0.250023647E+01
   C  0.644682043E+01  0.391728438E+01  0.249954608E+01
   C -0.766903245E+01  0.287769673E+00  0.249960385E+01
   C -0.129097382E+04 -0.108450373E+04  0.249949833E+01
   H -0.282400140E+02  0.212052289E+02  0.248734071E+01
   H  0.190414054E+02  0.273111049E+02  0.248645833E+01
   H -0.328447250E+02 -0.474285976E+01  0.248367568E+01
   H  0.237981196E+02 -0.209168773E+02  0.248601540E+01
  Xx -0.900100620E+03  0.861061917E+03  0.249931529E+01
    11
 # iter = 44500  time[fs]=44.50000
   N -0.364259239E+01 -0.746084202E+01  0.250001116E+01
   N  0.633637335E+01 -0.434889132E+01  0.250019900E+01
   C -0.237991817E+01  0.589398982E+01  0.250023665E+01
   C  0.648540731E+01  0.393590931E+01  0.249954352E+01
   C -0.771229870E+01  0.289360186E+00  0.249960389E+01
   C -0.129834171E+04 -0.109068693E+04  0.249949545E+01
   H -0.284084175E+02  0.213307512E+02  0.248725767E+01
   H  0.191565671E+02  0.274740578E+02  0.248636817E+01
   H -0.330427374E+02 -0.477607566E+01  0.248356625E+01
   H  0.239390391E+02 -0.210477832E+02  0.248592341E+01
  Xx -0.905239993E+03  0.865971218E+03  0.249931135E+01
    11
 # iter = 44750  time[fs]=44.75000
   N -0.366033159E+01 -0.750326067E+01  0.250000916E+01
   N  0.637235301E+01 -0.437023890E+01  0.250020169E+01
   C -0.239013100E+01  0.592738965E+01  0.250023665E+01
   C  0.652402124E+01  0.395464015E+01  0.249954069E+01
   C -0.775562011E+01  0.290967478E+00  0.249960431E+01
   C -0.130570959E+04 -0.109687013E+04  0.249949257E+01
   H -0.285768744E+02  0.214563268E+02  0.248717463E+01
   H  0.192717732E+02  0.276370639E+02  0.248627801E+01
   H -0.332408387E+02 -0.480931377E+01  0.248345683E+01
   H  0.240800208E+02 -0.211787424E+02  0.248583142E+01
  Xx -0.910379366E+03  0.870880518E+03  0.249930741E+01
    11
 # iter = 45000  time[fs]=45.00000
   N -0.367811891E+01 -0.754573817E+01  0.250000668E+01
   N  0.640834788E+01 -0.439159123E+01  0.250020431E+01
   C -0.240032155E+01  0.596084643E+01  0.250023661E+01
   C  0.656267507E+01  0.397331772E+01  0.249953841E+01
   C -0.779901600E+01  0.292574014E+00  0.249960450E+01
   C -0.131307748E+04 -0.110305332E+04  0.249948968E+01
   H -0.287453845E+02  0.215819556E+02  0.248709159E+01
   H  0.193870238E+02  0.278001234E+02  0.248618784E+01
   H -0.334390289E+02 -0.484257408E+01  0.248334740E+01
   H  0.242210646E+02 -0.213097549E+02  0.248573943E+01
  Xx -0.915518739E+03  0.875789819E+03  0.249930347E+01
    11
 # iter = 45250  time[fs]=45.25000
   N -0.369595484E+01 -0.758824374E+01  0.250000437E+01
   N  0.644440963E+01 -0.441298534E+01  0.250020698E+01
   C -0.241050809E+01  0.599434084E+01  0.250023674E+01
   C  0.660132750E+01  0.399210107E+01  0.249953560E+01
   C -0.784247345E+01  0.294203075E+00  0.249960495E+01
   C -0.132044536E+04 -0.110923652E+04  0.249948680E+01
   H -0.289139480E+02  0.217076378E+02  0.248700855E+01
   H  0.195023187E+02  0.279632415E+02  0.248609768E+01
   H -0.336373078E+02 -0.487585660E+01  0.248323798E+01
   H  0.243621706E+02 -0.214408207E+02  0.248564744E+01
  Xx -0.920658111E+03  0.880699120E+03  0.249929953E+01
    11
 # iter = 45500  time[fs]=45.50000
   N -0.371382380E+01 -0.763076858E+01  0.250000241E+01
   N  0.648053438E+01 -0.443444339E+01  0.250020915E+01
   C -0.242069113E+01  0.602789342E+01  0.250023662E+01
   C  0.664003415E+01  0.401083667E+01  0.249953324E+01
   C -0.788601185E+01  0.295840872E+00  0.249960522E+01
   C -0.132781324E+04 -0.111541972E+04  0.249948392E+01
   H -0.290825647E+02  0.218333733E+02  0.248692551E+01
   H  0.196176581E+02  0.281264218E+02  0.248600752E+01
   H -0.338356756E+02 -0.490916132E+01  0.248312856E+01
   H  0.245033388E+02 -0.215719398E+02  0.248555545E+01
  Xx -0.925797484E+03  0.885608420E+03  0.249929560E+01
    11
 # iter = 45750  time[fs]=45.75000
   N -0.373172387E+01 -0.767335412E+01  0.250000031E+01
   N  0.651668841E+01 -0.445598560E+01  0.250021087E+01
   C -0.243085310E+01  0.606148550E+01  0.250023678E+01
   C  0.667874718E+01  0.402964960E+01  0.249953087E+01
   C -0.792962848E+01  0.297506736E+00  0.249960565E+01
   C -0.133518113E+04 -0.112160291E+04  0.249948104E+01
   H -0.292512347E+02  0.219591621E+02  0.248684247E+01
   H  0.197330418E+02  0.282896643E+02  0.248591735E+01
   H -0.340341322E+02 -0.494248825E+01  0.248301913E+01
   H  0.246445692E+02 -0.217031122E+02  0.248546347E+01
  Xx -0.930936857E+03  0.890517721E+03  0.249929166E+01
    11
 # iter = 46000  time[fs]=46.00000
   N -0.374963868E+01 -0.771605648E+01  0.249999787E+01
   N  0.655283840E+01 -0.447760533E+01  0.250021225E+01
   C -0.244102014E+01  0.609511844E+01  0.250023673E+01
   C  0.671751951E+01  0.404844614E+01  0.249952818E+01
   C -0.797333816E+01  0.299190027E+00  0.249960592E+01
   C -0.134254901E+04 -0.112778611E+04  0.249947816E+01
   H -0.294199580E+02  0.220850089E+02  0.248675943E+01
   H  0.198484700E+02  0.284529689E+02  0.248582719E+01
   H -0.342326776E+02 -0.497583738E+01  0.248290971E+01
   H  0.247858617E+02 -0.218343379E+02  0.248537148E+01
  Xx -0.936076229E+03  0.895427022E+03  0.249928772E+01
    11
 # iter = 46250  time[fs]=46.25000
   N -0.376753702E+01 -0.775886225E+01  0.249999586E+01
   N  0.658897460E+01 -0.449927035E+01  0.250021356E+01
   C -0.245116230E+01  0.612881284E+01  0.250023669E+01
   C  0.675632380E+01  0.406727894E+01  0.249952627E+01
   C -0.801713905E+01  0.300909986E+00  0.249960630E+01
   C -0.134991690E+04 -0.113396931E+04  0.249947527E+01
   H -0.295887346E+02  0.222109179E+02  0.248667639E+01
   H  0.199639426E+02  0.286163358E+02  0.248573703E+01
   H -0.344313118E+02 -0.500920872E+01  0.248280029E+01
   H  0.249272211E+02 -0.219656168E+02  0.248527949E+01
  Xx -0.941215602E+03  0.900336322E+03  0.249928378E+01
    11
 # iter = 46500  time[fs]=46.50000
   N -0.378539777E+01 -0.780173494E+01  0.249999419E+01
   N  0.662510373E+01 -0.452094617E+01  0.250021519E+01
   C -0.246129918E+01  0.616254429E+01  0.250023685E+01
   C  0.679514524E+01  0.408612767E+01  0.249952342E+01
   C -0.806104214E+01  0.302662790E+00  0.249960671E+01
   C -0.135728478E+04 -0.114015250E+04  0.249947239E+01
   H -0.297575654E+02  0.223368891E+02  0.248659335E+01
   H  0.200794596E+02  0.287797647E+02  0.248564686E+01
   H -0.346300370E+02 -0.504260226E+01  0.248269086E+01
   H  0.250686514E+02 -0.220969491E+02  0.248518750E+01
  Xx -0.946354975E+03  0.905245623E+03  0.249927984E+01
    11
 # iter = 46750  time[fs]=46.75000
   N -0.380320790E+01 -0.784468106E+01  0.249999207E+01
   N  0.666124617E+01 -0.454260672E+01  0.250021661E+01
   C -0.247141890E+01  0.619635728E+01  0.250023674E+01
   C  0.683403281E+01  0.410498847E+01  0.249952183E+01
   C -0.810504550E+01  0.304461500E+00  0.249960709E+01
   C -0.136465266E+04 -0.114633570E+04  0.249946951E+01
   H -0.299264570E+02  0.224629225E+02  0.248651031E+01
   H  0.201950210E+02  0.289432559E+02  0.248555670E+01
   H -0.348288665E+02 -0.507601800E+01  0.248258144E+01
   H  0.252101529E+02 -0.222283346E+02  0.248509551E+01
  Xx -0.951494348E+03  0.910154923E+03  0.249927590E+01
    11
 # iter = 47000  time[fs]=47.00000
   N -0.382095039E+01 -0.788772606E+01  0.249999013E+01
   N  0.669744218E+01 -0.456423424E+01  0.250021762E+01
   C -0.248152047E+01  0.623021923E+01  0.250023680E+01
   C  0.687289471E+01  0.412388948E+01  0.249951936E+01
   C -0.814915881E+01  0.306308645E+00  0.249960755E+01
   C -0.137202055E+04 -0.115251890E+04  0.249946663E+01
   H -0.300954108E+02  0.225890180E+02  0.248642727E+01
   H  0.203106268E+02  0.291068093E+02  0.248546654E+01
   H -0.350278027E+02 -0.510945595E+01  0.248247202E+01
   H  0.253517254E+02 -0.223597734E+02  0.248500352E+01
  Xx -0.956633720E+03  0.915064224E+03  0.249927196E+01
    11
 # iter = 47250  time[fs]=47.25000
   N -0.383863304E+01 -0.793087362E+01  0.249998847E+01
   N  0.673371666E+01 -0.458580428E+01  0.250021812E+01
   C -0.249160869E+01  0.626414673E+01  0.250023673E+01
   C  0.691186432E+01  0.414280197E+01  0.249951755E+01
   C -0.819338480E+01  0.308209960E+00  0.249960790E+01
   C -0.137938843E+04 -0.115870209E+04  0.249946375E+01
   H -0.302644267E+02  0.227151757E+02  0.248634423E+01
   H  0.204262770E+02  0.292704248E+02  0.248537637E+01
   H -0.352268454E+02 -0.514291611E+01  0.248236259E+01
   H  0.254933689E+02 -0.224912656E+02  0.248491153E+01
  Xx -0.961773093E+03  0.919973525E+03  0.249926802E+01
    11
 # iter = 47500  time[fs]=47.50000
   N -0.385626520E+01 -0.797415304E+01  0.249998650E+01
   N  0.677004755E+01 -0.460731373E+01  0.250021826E+01
   C -0.250167181E+01  0.629814039E+01  0.250023664E+01
   C  0.695079549E+01  0.416175827E+01  0.249951569E+01
   C -0.823772942E+01  0.310173119E+00  0.249960833E+01
   C -0.138675632E+04 -0.116488529E+04  0.249946086E+01
   H -0.304335048E+02  0.228413956E+02  0.248626119E+01
   H  0.205419717E+02  0.294341025E+02  0.248528621E+01
   H -0.354259947E+02 -0.517639847E+01  0.248225317E+01
   H  0.256350835E+02 -0.226228115E+02  0.248481955E+01
  Xx -0.966912466E+03  0.924882825E+03  0.249926408E+01
    11
 # iter = 47750  time[fs]=47.75000
   N -0.387385343E+01 -0.801756920E+01  0.249998479E+01
   N  0.680639295E+01 -0.462880649E+01  0.250021845E+01
   C -0.251171775E+01  0.633216941E+01  0.250023680E+01
   C  0.698985296E+01  0.418074000E+01  0.249951343E+01
   C -0.828219647E+01  0.312202314E+00  0.249960863E+01
   C -0.139412420E+04 -0.117106849E+04  0.249945798E+01
   H -0.306026451E+02  0.229676776E+02  0.248617815E+01
   H  0.206577107E+02  0.295978423E+02  0.248519605E+01
   H -0.356252505E+02 -0.520990303E+01  0.248214374E+01
   H  0.257768692E+02 -0.227544162E+02  0.248472756E+01
  Xx -0.972051838E+03  0.929792126E+03  0.249926014E+01
    11
 # iter = 48000  time[fs]=48.00000
   N -0.389142917E+01 -0.806110442E+01  0.249998322E+01
   N  0.684272466E+01 -0.465033299E+01  0.250021859E+01
   C -0.252173602E+01  0.636627656E+01  0.250023665E+01
   C  0.702887345E+01  0.419975956E+01  0.249951217E+01
   C -0.832678942E+01  0.314303844E+00  0.249960902E+01
   C -0.140149208E+04 -0.117725168E+04  0.249945510E+01
   H -0.307718476E+02  0.230940219E+02  0.248609511E+01
   H  0.207734941E+02  0.297616444E+02  0.248510588E+01
   H -0.358246130E+02 -0.524342957E+01  0.248203432E+01
   H  0.259187259E+02 -0.228860831E+02  0.248463557E+01
  Xx -0.977191211E+03  0.934701427E+03  0.249925620E+01
    11
 # iter = 48250  time[fs]=48.25000
   N -0.390899380E+01 -0.810477288E+01  0.249998146E+01
   N  0.687904905E+01 -0.467190779E+01  0.250021864E+01
   C -0.253173422E+01  0.640042356E+01  0.250023670E+01
   C  0.706799951E+01  0.421882597E+01  0.249950993E+01
   C -0.837151103E+01  0.316481347E+00  0.249960939E+01
   C -0.140885997E+04 -0.118343488E+04  0.249945222E+01
   H -0.309411122E+02  0.232204283E+02  0.248601207E+01
   H  0.208893220E+02  0.299255086E+02  0.248501572E+01
   H -0.360240820E+02 -0.527697643E+01  0.248192490E+01
   H  0.260606536E+02 -0.230178122E+02  0.248454358E+01
  Xx -0.982330584E+03  0.939610727E+03  0.249925227E+01
    11
 # iter = 48500  time[fs]=48.50000
   N -0.392656367E+01 -0.814857845E+01  0.249997995E+01
   N  0.691540935E+01 -0.469353729E+01  0.250021819E+01
   C -0.254170089E+01  0.643464789E+01  0.250023668E+01
   C  0.710710363E+01  0.423791011E+01  0.249950874E+01
   C -0.841636331E+01  0.318739533E+00  0.249960980E+01
   C -0.141622785E+04 -0.118961808E+04  0.249944933E+01
   H -0.311104390E+02  0.233468968E+02  0.248592903E+01
   H  0.210051943E+02  0.300894349E+02  0.248492556E+01
   H -0.362236576E+02 -0.531054327E+01  0.248181547E+01
   H  0.262026574E+02 -0.231496034E+02  0.248445159E+01
  Xx -0.987469957E+03  0.944520028E+03  0.249924833E+01
    11
 # iter = 48750  time[fs]=48.75000
   N -0.394413556E+01 -0.819252981E+01  0.249997832E+01
   N  0.695185266E+01 -0.471523991E+01  0.250021742E+01
   C -0.255164389E+01  0.646894281E+01  0.250023653E+01
   C  0.714628623E+01  0.425705494E+01  0.249950660E+01
   C -0.846134880E+01  0.321080895E+00  0.249961021E+01
   C -0.142359574E+04 -0.119580127E+04  0.249944645E+01
   H -0.312798280E+02  0.234734276E+02  0.248584599E+01
   H  0.211211109E+02  0.302534235E+02  0.248483539E+01
   H -0.364233398E+02 -0.534413009E+01  0.248170605E+01
   H  0.263447412E+02 -0.232814568E+02  0.248435960E+01
  Xx -0.992609329E+03  0.949429328E+03  0.249924439E+01
    11
 # iter = 49000  time[fs]=49.00000
   N -0.396170774E+01 -0.823663455E+01  0.249997677E+01
   N  0.698838217E+01 -0.473701829E+01  0.250021654E+01
   C -0.256155767E+01  0.650329466E+01  0.250023660E+01
   C  0.718549323E+01  0.427620481E+01  0.249950520E+01
   C -0.850646820E+01  0.323508516E+00  0.249961062E+01
   C -0.143096362E+04 -0.120198447E+04  0.249944357E+01
   H -0.314492791E+02  0.236000205E+02  0.248576295E+01
   H  0.212370720E+02  0.304174742E+02  0.248474523E+01
   H -0.366231286E+02 -0.537773690E+01  0.248159663E+01
   H  0.264869048E+02 -0.234133724E+02  0.248426761E+01
  Xx -0.997748702E+03  0.954338629E+03  0.249924045E+01
    11
 # iter = 49250  time[fs]=49.25000
   N -0.397927574E+01 -0.828088928E+01  0.249997522E+01
   N  0.702495937E+01 -0.475883710E+01  0.250021583E+01
   C -0.257143856E+01  0.653772839E+01  0.250023641E+01
   C  0.722475608E+01  0.429541891E+01  0.249950358E+01
   C -0.855172245E+01  0.326023999E+00  0.249961103E+01
   C -0.143833150E+04 -0.120816767E+04  0.249944069E+01
   H -0.316187924E+02  0.237266756E+02  0.248567991E+01
   H  0.213530775E+02  0.305815871E+02  0.248465507E+01
   H -0.368230239E+02 -0.541136370E+01  0.248148720E+01
   H  0.266291484E+02 -0.235453501E+02  0.248417563E+01
  Xx -0.100288807E+04  0.959247930E+03  0.249923651E+01
    11
 # iter = 49500  time[fs]=49.50000
   N -0.399683314E+01 -0.832529726E+01  0.249997367E+01
   N  0.706153616E+01 -0.478064385E+01  0.250021488E+01
   C -0.258130291E+01  0.657220307E+01  0.250023638E+01
   C  0.726408070E+01  0.431463702E+01  0.249950228E+01
   C -0.859711209E+01  0.328628335E+00  0.249961143E+01
   C -0.144569939E+04 -0.121435086E+04  0.249943781E+01
   H -0.317883679E+02  0.238533928E+02  0.248559687E+01
   H  0.214691274E+02  0.307457622E+02  0.248456490E+01
   H -0.370230259E+02 -0.544501048E+01  0.248137778E+01
   H  0.267714720E+02 -0.236773900E+02  0.248408364E+01
  Xx -0.100802745E+04  0.964157230E+03  0.249923257E+01
    11
 # iter = 49750  time[fs]=49.75000
   N -0.401437850E+01 -0.836985750E+01  0.249997216E+01
   N  0.709809851E+01 -0.480240960E+01  0.250021327E+01
   C -0.259112644E+01  0.660674665E+01  0.250023635E+01
   C  0.730342220E+01  0.433390997E+01  0.249950083E+01
   C -0.864263924E+01  0.331321943E+00  0.249961184E+01
   C -0.145306727E+04 -0.122053406E+04  0.249943492E+01
   H -0.319580056E+02  0.239801723E+02  0.248551383E+01
   H  0.215852217E+02  0.309099994E+02  0.248447474E+01
   H -0.372231344E+02 -0.547867724E+01  0.248126836E+01
   H  0.269138754E+02 -0.238094921E+02  0.248399165E+01
  Xx -0.101316682E+04  0.969066531E+03  0.249922863E+01
    11
 # iter = 50000  time[fs]=50.00000
   N -0.403190959E+01 -0.841457291E+01  0.249997063E+01
   N  0.713468186E+01 -0.482413385E+01  0.250021130E+01
   C -0.260094243E+01  0.664134731E+01  0.250023596E+01
   C  0.734284273E+01  0.435320205E+01  0.249949969E+01
   C -0.868830407E+01  0.334105040E+00  0.249961225E+01
   C -0.146043516E+04 -0.122671726E+04  0.249943204E+01
   H -0.321277029E+02  0.241070139E+02  0.248543079E+01
   H  0.217013604E+02  0.310742988E+02  0.248438458E+01
   H -0.374233495E+02 -0.551236398E+01  0.248115893E+01
   H  0.270563588E+02 -0.239416564E+02  0.248389966E+01
  Xx -0.101830619E+04  0.973975832E+03  0.249922469E+01
