12
# hellooooo
C -1.0847291879   0.0000000000   0.1248189437
C  0.0000000000   1.0847291879  -0.1248189437
C  0.0000000000  -1.0847291879  -0.1248189437
C  1.0847291879   0.0000000000   0.1248189437
H -1.4229720492   0.0000000000   1.1677194739
H  0.0000000000   1.4229720492  -1.1677194739
H  0.0000000000  -1.4229720492  -1.1677194739
H  1.4229720492   0.0000000000   1.1677194739
H -1.9667140508   0.0000000000  -0.5245689046
H  0.0000000000   1.9667140508   0.5245689046
H  0.0000000000  -1.9667140508   0.5245689046
H  1.9667140508   0.0000000000  -0.5245689046