    11
 # iter =     0  time[fs]= 0.00000
   N -0.668466338E+00 -0.116463086E+01  0.250000000E+01
   N  0.668466338E+00 -0.116463086E+01  0.250000000E+01
   C -0.692277627E+00  0.124916000E+01  0.250000000E+01
   C  0.692277627E+00  0.124916000E+01  0.250000000E+01
   C -0.132315667E+01  0.433975300E-03  0.250000000E+01
   C  0.132315667E+01  0.433975300E-03  0.250000000E+01
   H -0.127180384E+01  0.216832769E+01  0.250000000E+01
   H  0.127180384E+01  0.216832769E+01  0.250000000E+01
   H -0.240769469E+01 -0.832907948E-01  0.250000000E+01
   H  0.240769469E+01 -0.832907948E-01  0.250000000E+01
  Xx  0.000000000E+00  0.200000000E+02  0.250000000E+01
    11
 # iter =   250  time[fs]= 0.25000
   N -0.668478215E+00 -0.116465212E+01  0.250000000E+01
   N  0.668478215E+00 -0.116465212E+01  0.250000000E+01
   C -0.692271393E+00  0.124913372E+01  0.250000000E+01
   C  0.692271393E+00  0.124913372E+01  0.250000000E+01
   C -0.132313012E+01  0.423117090E-03  0.250000000E+01
   C  0.132313012E+01  0.423117090E-03  0.250000000E+01
   H -0.127180996E+01  0.216829959E+01  0.250000000E+01
   H  0.127180996E+01  0.216829959E+01  0.250000000E+01
   H -0.240778471E+01 -0.833063714E-01  0.250000000E+01
   H  0.240778471E+01 -0.833063714E-01  0.250000000E+01
  Xx -0.180335877E-19  0.835700213E+01  0.250000000E+01
    11
 # iter =   500  time[fs]= 0.50000
   N -0.669172269E+00 -0.116485719E+01  0.250000000E+01
   N  0.669172269E+00 -0.116485719E+01  0.250000000E+01
   C -0.693355459E+00  0.124899060E+01  0.250000000E+01
   C  0.693355459E+00  0.124899060E+01  0.250000000E+01
   C -0.132329236E+01  0.296538630E-03  0.250000000E+01
   C  0.132329236E+01  0.296538630E-03  0.250000000E+01
   H -0.127317351E+01  0.216891404E+01  0.250000000E+01
   H  0.127317351E+01  0.216891404E+01  0.250000000E+01
   H -0.240863039E+01 -0.833670932E-01  0.250000000E+01
   H  0.240863039E+01 -0.833670932E-01  0.250000000E+01
  Xx -0.337579530E-18 -0.328353320E+01  0.250000000E+01
    11
 # iter =   750  time[fs]= 0.75000
   N -0.673292160E+00 -0.116609875E+01  0.249999976E+01
   N  0.673292160E+00 -0.116609875E+01  0.249999976E+01
   C -0.696323408E+00  0.124940372E+01  0.249999988E+01
   C  0.696323408E+00  0.124940372E+01  0.249999988E+01
   C -0.132462915E+01  0.294389813E-03  0.249999972E+01
   C  0.132462915E+01  0.294389813E-03  0.249999972E+01
   H -0.127991292E+01  0.217759869E+01  0.249999869E+01
   H  0.127991292E+01  0.217759869E+01  0.249999869E+01
   H -0.241608476E+01 -0.841700372E-01  0.249999858E+01
   H  0.241608476E+01 -0.841700372E-01  0.249999858E+01
  Xx -0.206422138E-17 -0.149235439E+02  0.249999934E+01
    11
 # iter =  1000  time[fs]= 1.00000
   N -0.678572243E+00 -0.116866578E+01  0.249999886E+01
   N  0.678572243E+00 -0.116866578E+01  0.249999886E+01
   C -0.700231958E+00  0.125063061E+01  0.249999906E+01
   C  0.700231958E+00  0.125063061E+01  0.249999906E+01
   C -0.132690859E+01  0.170919945E-03  0.249999881E+01
   C  0.132690859E+01  0.170919945E-03  0.249999881E+01
   H -0.129288712E+01  0.219620195E+01  0.249999441E+01
   H  0.129288712E+01  0.219620195E+01  0.249999441E+01
   H -0.243369607E+01 -0.856565926E-01  0.249999319E+01
   H  0.243369607E+01 -0.856565926E-01  0.249999319E+01
  Xx -0.377636274E-17 -0.265638880E+02  0.249999684E+01
    11
 # iter =  1250  time[fs]= 1.25000
   N -0.684642208E+00 -0.117255691E+01  0.249999735E+01
   N  0.684642208E+00 -0.117255691E+01  0.249999735E+01
   C -0.705196066E+00  0.125277258E+01  0.249999788E+01
   C  0.705196066E+00  0.125277258E+01  0.249999788E+01
   C -0.133015753E+01  0.163474989E-04  0.249999769E+01
   C  0.133015753E+01  0.163474989E-04  0.249999769E+01
   H -0.131157877E+01  0.222364954E+01  0.249998741E+01
   H  0.131157877E+01  0.222364954E+01  0.249998741E+01
   H -0.246144608E+01 -0.879585454E-01  0.249998655E+01
   H  0.246144608E+01 -0.879585454E-01  0.249998655E+01
  Xx -0.548762094E-17 -0.382043332E+02  0.249999415E+01
    11
 # iter =  1500  time[fs]= 1.50000
   N -0.691497229E+00 -0.117783954E+01  0.249999547E+01
   N  0.691497229E+00 -0.117783954E+01  0.249999547E+01
   C -0.711190026E+00  0.125553860E+01  0.249999596E+01
   C  0.711190026E+00  0.125553860E+01  0.249999596E+01
   C -0.133442649E+01  0.209237207E-03  0.249999595E+01
   C  0.133442649E+01  0.209237207E-03  0.249999595E+01
   H -0.133564405E+01  0.225899283E+01  0.249997976E+01
   H  0.133564405E+01  0.225899283E+01  0.249997976E+01
   H -0.249892840E+01 -0.915366175E-01  0.249997990E+01
   H  0.249892840E+01 -0.915366175E-01  0.249997990E+01
  Xx -0.719812821E-17 -0.498448266E+02  0.249999147E+01
    11
 # iter =  1750  time[fs]= 1.75000
   N -0.699392752E+00 -0.118423217E+01  0.249999339E+01
   N  0.699392752E+00 -0.118423217E+01  0.249999339E+01
   C -0.718089136E+00  0.125931006E+01  0.249999351E+01
   C  0.718089136E+00  0.125931006E+01  0.249999351E+01
   C -0.133973692E+01  0.131784591E-03  0.249999398E+01
   C  0.133973692E+01  0.131784591E-03  0.249999398E+01
   H -0.136389621E+01  0.230108729E+01  0.249997220E+01
   H  0.136389621E+01  0.230108729E+01  0.249997220E+01
   H -0.254586184E+01 -0.957584700E-01  0.249997094E+01
   H  0.254586184E+01 -0.957584700E-01  0.249997094E+01
  Xx -0.890920885E-17 -0.614853476E+02  0.249998879E+01
    11
 # iter =  2000  time[fs]= 2.00000
   N -0.708694565E+00 -0.119171172E+01  0.249999139E+01
   N  0.708694565E+00 -0.119171172E+01  0.249999139E+01
   C -0.725591128E+00  0.126412051E+01  0.249999107E+01
   C  0.725591128E+00  0.126412051E+01  0.249999107E+01
   C -0.134588231E+01 -0.101352862E-03  0.249999179E+01
   C  0.134588231E+01 -0.101352862E-03  0.249999179E+01
   H -0.139567145E+01  0.234876037E+01  0.249996570E+01
   H  0.139567145E+01  0.234876037E+01  0.249996570E+01
   H -0.260205667E+01 -0.100771516E+00  0.249995853E+01
   H  0.260205667E+01 -0.100771516E+00  0.249995853E+01
  Xx -0.106205377E-16 -0.731258809E+02  0.249998611E+01
    11
 # iter =  2250  time[fs]= 2.25000
   N -0.719091351E+00 -0.120023380E+01  0.249998931E+01
   N  0.719091351E+00 -0.120023380E+01  0.249998931E+01
   C -0.733813319E+00  0.126983537E+01  0.249998810E+01
   C  0.733813319E+00  0.126983537E+01  0.249998810E+01
   C -0.135283966E+01 -0.529766451E-03  0.249998962E+01
   C  0.135283966E+01 -0.529766451E-03  0.249998962E+01
   H -0.143109675E+01  0.240215549E+01  0.249995693E+01
   H  0.143109675E+01  0.240215549E+01  0.249995693E+01
   H -0.266700627E+01 -0.106305885E+00  0.249994101E+01
   H  0.266700627E+01 -0.106305885E+00  0.249994101E+01
  Xx -0.123320312E-16 -0.847664147E+02  0.249998343E+01
    11
 # iter =  2500  time[fs]= 2.50000
   N -0.730268045E+00 -0.120969115E+01  0.249998738E+01
   N  0.730268045E+00 -0.120969115E+01  0.249998738E+01
   C -0.742898410E+00  0.127640916E+01  0.249998544E+01
   C  0.742898410E+00  0.127640916E+01  0.249998544E+01
   C -0.136061092E+01 -0.131490655E-02  0.249998804E+01
   C  0.136061092E+01 -0.131490655E-02  0.249998804E+01
   H -0.147073359E+01  0.246165683E+01  0.249994646E+01
   H  0.147073359E+01  0.246165683E+01  0.249994646E+01
   H -0.274035266E+01 -0.112712438E+00  0.249992009E+01
   H  0.274035266E+01 -0.112712438E+00  0.249992009E+01
  Xx -0.140434698E-16 -0.964069484E+02  0.249998074E+01
    11
 # iter =  2750  time[fs]= 2.75000
   N -0.742168400E+00 -0.122022653E+01  0.249998565E+01
   N  0.742168400E+00 -0.122022653E+01  0.249998565E+01
   C -0.752473454E+00  0.128374075E+01  0.249998308E+01
   C  0.752473454E+00  0.128374075E+01  0.249998308E+01
   C -0.136926327E+01 -0.214800916E-02  0.249998648E+01
   C  0.136926327E+01 -0.214800916E-02  0.249998648E+01
   H -0.151453946E+01  0.252756860E+01  0.249993566E+01
   H  0.151453946E+01  0.252756860E+01  0.249993566E+01
   H -0.282083049E+01 -0.119738252E+00  0.249989484E+01
   H  0.282083049E+01 -0.119738252E+00  0.249989484E+01
  Xx -0.157548095E-16 -0.108047482E+03  0.249997806E+01
    11
 # iter =  3000  time[fs]= 3.00000
   N -0.754932879E+00 -0.123182064E+01  0.249998412E+01
   N  0.754932879E+00 -0.123182064E+01  0.249998412E+01
   C -0.762299489E+00  0.129183893E+01  0.249998086E+01
   C  0.762299489E+00  0.129183893E+01  0.249998086E+01
   C -0.137868249E+01 -0.308366173E-02  0.249998502E+01
   C  0.137868249E+01 -0.308366173E-02  0.249998502E+01
   H -0.156206359E+01  0.259985160E+01  0.249992455E+01
   H  0.156206359E+01  0.259985160E+01  0.249992455E+01
   H -0.290803870E+01 -0.127706545E+00  0.249986538E+01
   H  0.290803870E+01 -0.127706545E+00  0.249986538E+01
  Xx -0.174660167E-16 -0.119688016E+03  0.249997538E+01
    11
 # iter =  3250  time[fs]= 3.25000
   N -0.768375568E+00 -0.124449989E+01  0.249998271E+01
   N  0.768375568E+00 -0.124449989E+01  0.249998271E+01
   C -0.772414768E+00  0.130062206E+01  0.249997865E+01
   C  0.772414768E+00  0.130062206E+01  0.249997865E+01
   C -0.138894898E+01 -0.383624744E-02  0.249998365E+01
   C  0.138894898E+01 -0.383624744E-02  0.249998365E+01
   H -0.161270665E+01  0.267726962E+01  0.249991238E+01
   H  0.161270665E+01  0.267726962E+01  0.249991238E+01
   H -0.300150440E+01 -0.136221170E+00  0.249982931E+01
   H  0.300150440E+01 -0.136221170E+00  0.249982931E+01
  Xx -0.191772136E-16 -0.131328550E+03  0.249997270E+01
    11
 # iter =  3500  time[fs]= 3.50000
   N -0.782464841E+00 -0.125802057E+01  0.249998117E+01
   N  0.782464841E+00 -0.125802057E+01  0.249998117E+01
   C -0.782877389E+00  0.131011344E+01  0.249997721E+01
   C  0.782877389E+00  0.131011344E+01  0.249997721E+01
   C -0.140007938E+01 -0.469579229E-02  0.249998171E+01
   C  0.140007938E+01 -0.469579229E-02  0.249998171E+01
   H -0.166627318E+01  0.275935751E+01  0.249989448E+01
   H  0.166627318E+01  0.275935751E+01  0.249989448E+01
   H -0.310026476E+01 -0.145386706E+00  0.249978879E+01
   H  0.310026476E+01 -0.145386706E+00  0.249978879E+01
  Xx -0.208883769E-16 -0.142969083E+03  0.249997001E+01
    11
 # iter =  3750  time[fs]= 3.75000
   N -0.796914999E+00 -0.127230942E+01  0.249997981E+01
   N  0.796914999E+00 -0.127230942E+01  0.249997981E+01
   C -0.794152048E+00  0.132005807E+01  0.249997537E+01
   C  0.794152048E+00  0.132005807E+01  0.249997537E+01
   C -0.141199907E+01 -0.546550358E-02  0.249997958E+01
   C  0.141199907E+01 -0.546550358E-02  0.249997958E+01
   H -0.172299565E+01  0.284604685E+01  0.249987651E+01
   H  0.172299565E+01  0.284604685E+01  0.249987651E+01
   H -0.320368660E+01 -0.155102440E+00  0.249974825E+01
   H  0.320368660E+01 -0.155102440E+00  0.249974825E+01
  Xx -0.225995486E-16 -0.154609617E+03  0.249996733E+01
    11
 # iter =  4000  time[fs]= 4.00000
   N -0.811749972E+00 -0.128730347E+01  0.249997837E+01
   N  0.811749972E+00 -0.128730347E+01  0.249997837E+01
   C -0.805737319E+00  0.133066902E+01  0.249997368E+01
   C  0.805737319E+00  0.133066902E+01  0.249997368E+01
   C -0.142470697E+01 -0.628871681E-02  0.249997743E+01
   C  0.142470697E+01 -0.628871681E-02  0.249997743E+01
   H -0.178207730E+01  0.293699187E+01  0.249985748E+01
   H  0.178207730E+01  0.293699187E+01  0.249985748E+01
   H -0.331177186E+01 -0.165391797E+00  0.249970694E+01
   H  0.331177186E+01 -0.165391797E+00  0.249970694E+01
  Xx -0.243107157E-16 -0.166250151E+03  0.249996465E+01
    11
 # iter =  4250  time[fs]= 4.25000
   N -0.827082419E+00 -0.130274548E+01  0.249997734E+01
   N  0.827082419E+00 -0.130274548E+01  0.249997734E+01
   C -0.817626540E+00  0.134195069E+01  0.249997106E+01
   C  0.817626540E+00  0.134195069E+01  0.249997106E+01
   C -0.143806360E+01 -0.758631144E-02  0.249997592E+01
   C  0.143806360E+01 -0.758631144E-02  0.249997592E+01
   H -0.184373242E+01  0.303184361E+01  0.249983975E+01
   H  0.184373242E+01  0.303184361E+01  0.249983975E+01
   H -0.342413005E+01 -0.176346599E+00  0.249966584E+01
   H  0.342413005E+01 -0.176346599E+00  0.249966584E+01
  Xx -0.260219456E-16 -0.177890684E+03  0.249996197E+01
    11
 # iter =  4500  time[fs]= 4.50000
   N -0.842701563E+00 -0.131880858E+01  0.249997650E+01
   N  0.842701563E+00 -0.131880858E+01  0.249997650E+01
   C -0.829608411E+00  0.135388933E+01  0.249996798E+01
   C  0.829608411E+00  0.135388933E+01  0.249996798E+01
   C -0.145216804E+01 -0.891765647E-02  0.249997450E+01
   C  0.145216804E+01 -0.891765647E-02  0.249997450E+01
   H -0.190768866E+01  0.313037970E+01  0.249982062E+01
   H  0.190768866E+01  0.313037970E+01  0.249982062E+01
   H -0.354067104E+01 -0.187763830E+00  0.249962370E+01
   H  0.354067104E+01 -0.187763830E+00  0.249962370E+01
  Xx -0.277330752E-16 -0.189531218E+03  0.249995928E+01
    11
 # iter =  4750  time[fs]= 4.75000
   N -0.858428868E+00 -0.133560917E+01  0.249997574E+01
   N  0.858428868E+00 -0.133560917E+01  0.249997574E+01
   C -0.841867231E+00  0.136630049E+01  0.249996482E+01
   C  0.841867231E+00  0.136630049E+01  0.249996482E+01
   C -0.146693185E+01 -0.100921516E-01  0.249997300E+01
   C  0.146693185E+01 -0.100921516E-01  0.249997300E+01
   H -0.197392085E+01  0.323240053E+01  0.249980081E+01
   H  0.197392085E+01  0.323240053E+01  0.249980081E+01
   H -0.366101860E+01 -0.199711050E+00  0.249957800E+01
   H  0.366101860E+01 -0.199711050E+00  0.249957800E+01
  Xx -0.294441580E-16 -0.201171752E+03  0.249995660E+01
    11
 # iter =  5000  time[fs]= 5.00000
   N -0.874497234E+00 -0.135292782E+01  0.249997536E+01
   N  0.874497234E+00 -0.135292782E+01  0.249997536E+01
   C -0.854349259E+00  0.137926959E+01  0.249996184E+01
   C  0.854349259E+00  0.137926959E+01  0.249996184E+01
   C -0.148231619E+01 -0.114405304E-01  0.249997123E+01
   C  0.148231619E+01 -0.114405304E-01  0.249997123E+01
   H -0.204217088E+01  0.333765978E+01  0.249978132E+01
   H  0.204217088E+01  0.333765978E+01  0.249978132E+01
   H -0.378489996E+01 -0.212140427E+00  0.249952996E+01
   H  0.378489996E+01 -0.212140427E+00  0.249952996E+01
  Xx -0.311552200E-16 -0.212812286E+03  0.249995392E+01
    11
 # iter =  5250  time[fs]= 5.25000
   N -0.890976396E+00 -0.137067241E+01  0.249997526E+01
   N  0.890976396E+00 -0.137067241E+01  0.249997526E+01
   C -0.866842513E+00  0.139284207E+01  0.249995834E+01
   C  0.866842513E+00  0.139284207E+01  0.249995834E+01
   C -0.149832037E+01 -0.129944281E-01  0.249996904E+01
   C  0.149832037E+01 -0.129944281E-01  0.249996904E+01
   H -0.211230360E+01  0.344572188E+01  0.249976091E+01
   H  0.211230360E+01  0.344572188E+01  0.249976091E+01
   H -0.391204452E+01 -0.225023051E+00  0.249947994E+01
   H  0.391204452E+01 -0.225023051E+00  0.249947994E+01
  Xx -0.328662802E-16 -0.224452819E+03  0.249995124E+01
    11
 # iter =  5500  time[fs]= 5.50000
   N -0.907909791E+00 -0.138881665E+01  0.249997522E+01
   N  0.907909791E+00 -0.138881665E+01  0.249997522E+01
   C -0.879560185E+00  0.140682479E+01  0.249995481E+01
   C  0.879560185E+00  0.140682479E+01  0.249995481E+01
   C -0.151481965E+01 -0.147196416E-01  0.249996719E+01
   C  0.151481965E+01 -0.147196416E-01  0.249996719E+01
   H -0.218411432E+01  0.355654726E+01  0.249973910E+01
   H  0.218411432E+01  0.355654726E+01  0.249973910E+01
   H -0.404213149E+01 -0.238285540E+00  0.249942643E+01
   H  0.404213149E+01 -0.238285540E+00  0.249942643E+01
  Xx -0.345773111E-16 -0.236093353E+03  0.249994856E+01
    11
 # iter =  5750  time[fs]= 5.75000
   N -0.925103637E+00 -0.140737470E+01  0.249997499E+01
   N  0.925103637E+00 -0.140737470E+01  0.249997499E+01
   C -0.892541587E+00  0.142128659E+01  0.249995119E+01
   C  0.892541587E+00  0.142128659E+01  0.249995119E+01
   C -0.153171741E+01 -0.166167809E-01  0.249996632E+01
   C  0.153171741E+01 -0.166167809E-01  0.249996632E+01
   H -0.225754696E+01  0.366988589E+01  0.249971636E+01
   H  0.225754696E+01  0.366988589E+01  0.249971636E+01
   H -0.417503698E+01 -0.251934502E+00  0.249937259E+01
   H  0.417503698E+01 -0.251934502E+00  0.249937259E+01
  Xx -0.362883454E-16 -0.247733887E+03  0.249994587E+01
    11
 # iter =  6000  time[fs]= 6.00000
   N -0.942507842E+00 -0.142636287E+01  0.249997481E+01
   N  0.942507842E+00 -0.142636287E+01  0.249997481E+01
   C -0.905800351E+00  0.143615619E+01  0.249994761E+01
   C  0.905800351E+00  0.143615619E+01  0.249994761E+01
   C -0.154910502E+01 -0.185810372E-01  0.249996526E+01
   C  0.154910502E+01 -0.185810372E-01  0.249996526E+01
   H -0.233247173E+01  0.378557099E+01  0.249969119E+01
   H  0.233247173E+01  0.378557099E+01  0.249969119E+01
   H -0.431046599E+01 -0.265969235E+00  0.249931687E+01
   H  0.431046599E+01 -0.265969235E+00  0.249931687E+01
  Xx -0.379993306E-16 -0.259374421E+03  0.249994319E+01
    11
 # iter =  6250  time[fs]= 6.25000
   N -0.960116704E+00 -0.144587248E+01  0.249997446E+01
   N  0.960116704E+00 -0.144587248E+01  0.249997446E+01
   C -0.919219499E+00  0.145146358E+01  0.249994337E+01
   C  0.919219499E+00  0.145146358E+01  0.249994337E+01
   C -0.156696344E+01 -0.206138810E-01  0.249996456E+01
   C  0.156696344E+01 -0.206138810E-01  0.249996456E+01
   H -0.240881137E+01  0.390345248E+01  0.249966130E+01
   H  0.240881137E+01  0.390345248E+01  0.249966130E+01
   H -0.444818486E+01 -0.280321200E+00  0.249925679E+01
   H  0.444818486E+01 -0.280321200E+00  0.249925679E+01
  Xx -0.397103334E-16 -0.271014954E+03  0.249994051E+01
    11
 # iter =  6500  time[fs]= 6.50000
   N -0.978005027E+00 -0.146583049E+01  0.249997367E+01
   N  0.978005027E+00 -0.146583049E+01  0.249997367E+01
   C -0.932904667E+00  0.146708780E+01  0.249993965E+01
   C  0.932904667E+00  0.146708780E+01  0.249993965E+01
   C -0.158520505E+01 -0.226725829E-01  0.249996408E+01
   C  0.158520505E+01 -0.226725829E-01  0.249996408E+01
   H -0.248651826E+01  0.402344412E+01  0.249963040E+01
   H  0.248651826E+01  0.402344412E+01  0.249963040E+01
   H -0.458807175E+01 -0.295076018E+00  0.249919455E+01
   H  0.458807175E+01 -0.295076018E+00  0.249919455E+01
  Xx -0.414213191E-16 -0.282655488E+03  0.249993783E+01
    11
 # iter =  6750  time[fs]= 6.75000
   N -0.996128285E+00 -0.148617371E+01  0.249997301E+01
   N  0.996128285E+00 -0.148617371E+01  0.249997301E+01
   C -0.946883092E+00  0.148292524E+01  0.249993649E+01
   C  0.946883092E+00  0.148292524E+01  0.249993649E+01
   C -0.160380064E+01 -0.246612007E-01  0.249996385E+01
   C  0.160380064E+01 -0.246612007E-01  0.249996385E+01
   H -0.256540736E+01  0.414540964E+01  0.249960099E+01
   H  0.256540736E+01  0.414540964E+01  0.249960099E+01
   H -0.473004671E+01 -0.310193849E+00  0.249912951E+01
   H  0.473004671E+01 -0.310193849E+00  0.249912951E+01
  Xx -0.431322507E-16 -0.294296022E+03  0.249993514E+01
    11
 # iter =  7000  time[fs]= 7.00000
   N -0.101450027E+01 -0.150698539E+01  0.249997218E+01
   N  0.101450027E+01 -0.150698539E+01  0.249997218E+01
   C -0.960989832E+00  0.149911188E+01  0.249993312E+01
   C  0.960989832E+00  0.149911188E+01  0.249993312E+01
   C -0.162270108E+01 -0.266096437E-01  0.249996391E+01
   C  0.162270108E+01 -0.266096437E-01  0.249996391E+01
   H -0.264540494E+01  0.426910998E+01  0.249957247E+01
   H  0.264540494E+01  0.426910998E+01  0.249957247E+01
   H -0.487400032E+01 -0.325604335E+00  0.249906360E+01
   H  0.487400032E+01 -0.325604335E+00  0.249906360E+01
  Xx -0.448431364E-16 -0.305936555E+03  0.249993246E+01
    11
 # iter =  7250  time[fs]= 7.25000
   N -0.103300756E+01 -0.152816483E+01  0.249997124E+01
   N  0.103300756E+01 -0.152816483E+01  0.249997124E+01
   C -0.975306248E+00  0.151565877E+01  0.249992995E+01
   C  0.975306248E+00  0.151565877E+01  0.249992995E+01
   C -0.164185923E+01 -0.286164035E-01  0.249996341E+01
   C  0.164185923E+01 -0.286164035E-01  0.249996341E+01
   H -0.272640687E+01  0.439445045E+01  0.249953861E+01
   H  0.272640687E+01  0.439445045E+01  0.249953861E+01
   H -0.501978292E+01 -0.341353601E+00  0.249899602E+01
   H  0.501978292E+01 -0.341353601E+00  0.249899602E+01
  Xx -0.465540123E-16 -0.317577089E+03  0.249992978E+01
    11
 # iter =  7500  time[fs]= 7.50000
   N -0.105148250E+01 -0.154966481E+01  0.249997070E+01
   N  0.105148250E+01 -0.154966481E+01  0.249997070E+01
   C -0.989808308E+00  0.153250859E+01  0.249992673E+01
   C  0.989808308E+00  0.153250859E+01  0.249992673E+01
   C -0.166139743E+01 -0.305730965E-01  0.249996270E+01
   C  0.166139743E+01 -0.305730965E-01  0.249996270E+01
   H -0.280835104E+01  0.452132430E+01  0.249950394E+01
   H  0.280835104E+01  0.452132430E+01  0.249950394E+01
   H -0.516729586E+01 -0.357366619E+00  0.249892453E+01
   H  0.516729586E+01 -0.357366619E+00  0.249892453E+01
  Xx -0.482648687E-16 -0.329217623E+03  0.249992710E+01
    11
 # iter =  7750  time[fs]= 7.75000
   N -0.107006067E+01 -0.157147460E+01  0.249996954E+01
   N  0.107006067E+01 -0.157147460E+01  0.249996954E+01
   C -0.100439681E+01  0.154969646E+01  0.249992388E+01
   C  0.100439681E+01  0.154969646E+01  0.249992388E+01
   C -0.168130150E+01 -0.325682541E-01  0.249996265E+01
   C  0.168130150E+01 -0.325682541E-01  0.249996265E+01
   H -0.289120622E+01  0.464956932E+01  0.249947153E+01
   H  0.289120622E+01  0.464956932E+01  0.249947153E+01
   H -0.531633202E+01 -0.373670990E+00  0.249885499E+01
   H  0.531633202E+01 -0.373670990E+00  0.249885499E+01
  Xx -0.499757179E-16 -0.340858157E+03  0.249992442E+01
    11
 # iter =  8000  time[fs]= 8.00000
   N -0.108869747E+01 -0.159354047E+01  0.249996783E+01
   N  0.108869747E+01 -0.159354047E+01  0.249996783E+01
   C -0.101921533E+01  0.156708326E+01  0.249992112E+01
   C  0.101921533E+01  0.156708326E+01  0.249992112E+01
   C -0.170143149E+01 -0.345118621E-01  0.249996312E+01
   C  0.170143149E+01 -0.345118621E-01  0.249996312E+01
   H -0.297489166E+01  0.477914467E+01  0.249943731E+01
   H  0.297489166E+01  0.477914467E+01  0.249943731E+01
   H -0.546684987E+01 -0.390274588E+00  0.249878267E+01
   H  0.546684987E+01 -0.390274588E+00  0.249878267E+01
  Xx -0.516865842E-16 -0.352498690E+03  0.249992173E+01
    11
 # iter =  8250  time[fs]= 8.25000
   N -0.110745543E+01 -0.161578025E+01  0.249996646E+01
   N  0.110745543E+01 -0.161578025E+01  0.249996646E+01
   C -0.103424448E+01  0.158461721E+01  0.249991770E+01
   C  0.103424448E+01  0.158461721E+01  0.249991770E+01
   C -0.172183495E+01 -0.364441676E-01  0.249996340E+01
   C  0.172183495E+01 -0.364441676E-01  0.249996340E+01
   H -0.305940008E+01  0.490997977E+01  0.249940156E+01
   H  0.305940008E+01  0.490997977E+01  0.249940156E+01
   H -0.561874985E+01 -0.407107878E+00  0.249870666E+01
   H  0.561874985E+01 -0.407107878E+00  0.249870666E+01
  Xx -0.533974383E-16 -0.364139224E+03  0.249991905E+01
    11
 # iter =  8500  time[fs]= 8.50000
   N -0.112627206E+01 -0.163819561E+01  0.249996470E+01
   N  0.112627206E+01 -0.163819561E+01  0.249996470E+01
   C -0.104936035E+01  0.160242580E+01  0.249991492E+01
   C  0.104936035E+01  0.160242580E+01  0.249991492E+01
   C -0.174247661E+01 -0.385380682E-01  0.249996420E+01
   C  0.174247661E+01 -0.385380682E-01  0.249996420E+01
   H -0.314465286E+01  0.504202544E+01  0.249936245E+01
   H  0.314465286E+01  0.504202544E+01  0.249936245E+01
   H -0.577189737E+01 -0.424219977E+00  0.249862977E+01
   H  0.577189737E+01 -0.424219977E+00  0.249862977E+01
  Xx -0.551082716E-16 -0.375779758E+03  0.249991637E+01
    11
 # iter =  8750  time[fs]= 8.75000
   N -0.114532289E+01 -0.166077913E+01  0.249996343E+01
   N  0.114532289E+01 -0.166077913E+01  0.249996343E+01
   C -0.106462342E+01  0.162048593E+01  0.249991177E+01
   C  0.106462342E+01  0.162048593E+01  0.249991177E+01
   C -0.176331918E+01 -0.407285869E-01  0.249996456E+01
   C  0.176331918E+01 -0.407285869E-01  0.249996456E+01
   H -0.323058232E+01  0.517512817E+01  0.249932142E+01
   H  0.323058232E+01  0.517512817E+01  0.249932142E+01
   H -0.592625268E+01 -0.441556524E+00  0.249855499E+01
   H  0.592625268E+01 -0.441556524E+00  0.249855499E+01
  Xx -0.568190832E-16 -0.387420292E+03  0.249991369E+01
    11
 # iter =  9000  time[fs]= 9.00000
   N -0.116443453E+01 -0.168361833E+01  0.249996210E+01
   N  0.116443453E+01 -0.168361833E+01  0.249996210E+01
   C -0.108010513E+01  0.163866291E+01  0.249990877E+01
   C  0.108010513E+01  0.163866291E+01  0.249990877E+01
   C -0.178442642E+01 -0.429038015E-01  0.249996492E+01
   C  0.178442642E+01 -0.429038015E-01  0.249996492E+01
   H -0.331719686E+01  0.530928106E+01  0.249928121E+01
   H  0.331719686E+01  0.530928106E+01  0.249928121E+01
   H -0.608175514E+01 -0.459096920E+00  0.249848069E+01
   H  0.608175514E+01 -0.459096920E+00  0.249848069E+01
  Xx -0.585298771E-16 -0.399060825E+03  0.249991100E+01
    11
 # iter =  9250  time[fs]= 9.25000
   N -0.118363484E+01 -0.170670655E+01  0.249996072E+01
   N  0.118363484E+01 -0.170670655E+01  0.249996072E+01
   C -0.109574366E+01  0.165702580E+01  0.249990545E+01
   C  0.109574366E+01  0.165702580E+01  0.249990545E+01
   C -0.180574874E+01 -0.450538030E-01  0.249996585E+01
   C  0.180574874E+01 -0.450538030E-01  0.249996585E+01
   H -0.340440642E+01  0.544443462E+01  0.249923970E+01
   H  0.340440642E+01  0.544443462E+01  0.249923970E+01
   H -0.623828738E+01 -0.476797303E+00  0.249840405E+01
   H  0.623828738E+01 -0.476797303E+00  0.249840405E+01
  Xx -0.602406782E-16 -0.410701359E+03  0.249990832E+01
    11
 # iter =  9500  time[fs]= 9.50000
   N -0.120298609E+01 -0.173009507E+01  0.249995931E+01
   N  0.120298609E+01 -0.173009507E+01  0.249995931E+01
   C -0.111143653E+01  0.167556027E+01  0.249990188E+01
   C  0.111143653E+01  0.167556027E+01  0.249990188E+01
   C -0.182721805E+01 -0.471272492E-01  0.249996735E+01
   C  0.182721805E+01 -0.471272492E-01  0.249996735E+01
   H -0.349218641E+01  0.558047918E+01  0.249919700E+01
   H  0.349218641E+01  0.558047918E+01  0.249919700E+01
   H -0.639582753E+01 -0.494692997E+00  0.249832431E+01
   H  0.639582753E+01 -0.494692997E+00  0.249832431E+01
  Xx -0.619514631E-16 -0.422341893E+03  0.249990564E+01
    11
 # iter =  9750  time[fs]= 9.75000
   N -0.122247483E+01 -0.175369583E+01  0.249995851E+01
   N  0.122247483E+01 -0.175369583E+01  0.249995851E+01
   C -0.112724975E+01  0.169423480E+01  0.249989842E+01
   C  0.112724975E+01  0.169423480E+01  0.249989842E+01
   C -0.184886909E+01 -0.491963653E-01  0.249996865E+01
   C  0.184886909E+01 -0.491963653E-01  0.249996865E+01
   H -0.358056765E+01  0.571741498E+01  0.249915505E+01
   H  0.358056765E+01  0.571741498E+01  0.249915505E+01
   H -0.655440842E+01 -0.512781888E+00  0.249824082E+01
   H  0.655440842E+01 -0.512781888E+00  0.249824082E+01
  Xx -0.636622294E-16 -0.433982426E+03  0.249990296E+01
    11
 # iter = 10000  time[fs]=10.00000
   N -0.124208068E+01 -0.177741140E+01  0.249995759E+01
   N  0.124208068E+01 -0.177741140E+01  0.249995759E+01
   C -0.114316979E+01  0.171311401E+01  0.249989523E+01
   C  0.114316979E+01  0.171311401E+01  0.249989523E+01
   C -0.187077145E+01 -0.513501922E-01  0.249996955E+01
   C  0.187077145E+01 -0.513501922E-01  0.249996955E+01
   H -0.366944218E+01  0.585514645E+01  0.249910978E+01
   H  0.366944218E+01  0.585514645E+01  0.249910978E+01
   H -0.671388469E+01 -0.531040057E+00  0.249815400E+01
   H  0.671388469E+01 -0.531040057E+00  0.249815400E+01
  Xx -0.653729699E-16 -0.445622960E+03  0.249990027E+01
    11
 # iter = 10250  time[fs]=10.25000
   N -0.126185202E+01 -0.180119484E+01  0.249995643E+01
   N  0.126185202E+01 -0.180119484E+01  0.249995643E+01
   C -0.115917245E+01  0.173223710E+01  0.249989209E+01
   C  0.115917245E+01  0.173223710E+01  0.249989209E+01
   C -0.189281295E+01 -0.536739553E-01  0.249997069E+01
   C  0.189281295E+01 -0.536739553E-01  0.249997069E+01
   H -0.375882446E+01  0.599365712E+01  0.249906268E+01
   H  0.375882446E+01  0.599365712E+01  0.249906268E+01
   H -0.687418884E+01 -0.549476671E+00  0.249806642E+01
   H  0.687418884E+01 -0.549476671E+00  0.249806642E+01
  Xx -0.670836998E-16 -0.457263494E+03  0.249989759E+01
