    11
 # iter =     0  time[fs]= 0.00000
   N -0.668466338E+00 -0.116463086E+01  0.250000000E+01
   N  0.668466338E+00 -0.116463086E+01  0.250000000E+01
   C -0.692277627E+00  0.124916000E+01  0.250000000E+01
   C  0.692277627E+00  0.124916000E+01  0.250000000E+01
   C -0.132315667E+01  0.433975300E-03  0.250000000E+01
   C  0.132315667E+01  0.433975300E-03  0.250000000E+01
   H -0.127180384E+01  0.216832769E+01  0.250000000E+01
   H  0.127180384E+01  0.216832769E+01  0.250000000E+01
   H -0.240769469E+01 -0.832907948E-01  0.250000000E+01
   H  0.240769469E+01 -0.832907948E-01  0.250000000E+01
  Xx  0.000000000E+00  0.200000000E+02  0.250000000E+01
    11
 # iter =   250  time[fs]= 0.25000
   N -0.668478215E+00 -0.116465212E+01  0.250000000E+01
   N  0.668478215E+00 -0.116465212E+01  0.250000000E+01
   C -0.692271393E+00  0.124913372E+01  0.250000000E+01
   C  0.692271393E+00  0.124913372E+01  0.250000000E+01
   C -0.132313012E+01  0.423117090E-03  0.250000000E+01
   C  0.132313012E+01  0.423117090E-03  0.250000000E+01
   H -0.127180996E+01  0.216829959E+01  0.250000000E+01
   H  0.127180996E+01  0.216829959E+01  0.250000000E+01
   H -0.240778471E+01 -0.833063714E-01  0.250000000E+01
   H  0.240778471E+01 -0.833063714E-01  0.250000000E+01
  Xx -0.180335877E-19  0.835700213E+01  0.250000000E+01
    11
 # iter =   500  time[fs]= 0.50000
   N -0.669172269E+00 -0.116485719E+01  0.250000000E+01
   N  0.669172269E+00 -0.116485719E+01  0.250000000E+01
   C -0.693355459E+00  0.124899060E+01  0.250000000E+01
   C  0.693355459E+00  0.124899060E+01  0.250000000E+01
   C -0.132329236E+01  0.296538630E-03  0.250000000E+01
   C  0.132329236E+01  0.296538630E-03  0.250000000E+01
   H -0.127317351E+01  0.216891404E+01  0.250000000E+01
   H  0.127317351E+01  0.216891404E+01  0.250000000E+01
   H -0.240863039E+01 -0.833670932E-01  0.250000000E+01
   H  0.240863039E+01 -0.833670932E-01  0.250000000E+01
  Xx -0.337579530E-18 -0.328353320E+01  0.250000000E+01
    11
 # iter =   750  time[fs]= 0.75000
   N -0.673292160E+00 -0.116609875E+01  0.249999976E+01
   N  0.673292160E+00 -0.116609875E+01  0.249999976E+01
   C -0.696323408E+00  0.124940372E+01  0.249999988E+01
   C  0.696323408E+00  0.124940372E+01  0.249999988E+01
   C -0.132462915E+01  0.294389813E-03  0.249999972E+01
   C  0.132462915E+01  0.294389813E-03  0.249999972E+01
   H -0.127991292E+01  0.217759869E+01  0.249999869E+01
   H  0.127991292E+01  0.217759869E+01  0.249999869E+01
   H -0.241608476E+01 -0.841700372E-01  0.249999858E+01
   H  0.241608476E+01 -0.841700372E-01  0.249999858E+01
  Xx -0.206422138E-17 -0.149235439E+02  0.249999934E+01
    11
 # iter =  1000  time[fs]= 1.00000
   N -0.678572243E+00 -0.116866578E+01  0.249999886E+01
   N  0.678572243E+00 -0.116866578E+01  0.249999886E+01
   C -0.700231958E+00  0.125063061E+01  0.249999906E+01
   C  0.700231958E+00  0.125063061E+01  0.249999906E+01
   C -0.132690859E+01  0.170919945E-03  0.249999881E+01
   C  0.132690859E+01  0.170919945E-03  0.249999881E+01
   H -0.129288712E+01  0.219620195E+01  0.249999441E+01
   H  0.129288712E+01  0.219620195E+01  0.249999441E+01
   H -0.243369607E+01 -0.856565926E-01  0.249999319E+01
   H  0.243369607E+01 -0.856565926E-01  0.249999319E+01
  Xx -0.377636274E-17 -0.265638880E+02  0.249999684E+01
    11
 # iter =  1250  time[fs]= 1.25000
   N -0.684642208E+00 -0.117255691E+01  0.249999735E+01
   N  0.684642208E+00 -0.117255691E+01  0.249999735E+01
   C -0.705196066E+00  0.125277258E+01  0.249999788E+01
   C  0.705196066E+00  0.125277258E+01  0.249999788E+01
   C -0.133015753E+01  0.163474989E-04  0.249999769E+01
   C  0.133015753E+01  0.163474989E-04  0.249999769E+01
   H -0.131157877E+01  0.222364954E+01  0.249998741E+01
   H  0.131157877E+01  0.222364954E+01  0.249998741E+01
   H -0.246144608E+01 -0.879585454E-01  0.249998655E+01
   H  0.246144608E+01 -0.879585454E-01  0.249998655E+01
  Xx -0.548762094E-17 -0.382043332E+02  0.249999415E+01
    11
 # iter =  1500  time[fs]= 1.50000
   N -0.691497229E+00 -0.117783954E+01  0.249999547E+01
   N  0.691497229E+00 -0.117783954E+01  0.249999547E+01
   C -0.711190026E+00  0.125553860E+01  0.249999596E+01
   C  0.711190026E+00  0.125553860E+01  0.249999596E+01
   C -0.133442649E+01  0.209237207E-03  0.249999595E+01
   C  0.133442649E+01  0.209237207E-03  0.249999595E+01
   H -0.133564405E+01  0.225899283E+01  0.249997976E+01
   H  0.133564405E+01  0.225899283E+01  0.249997976E+01
   H -0.249892840E+01 -0.915366175E-01  0.249997990E+01
   H  0.249892840E+01 -0.915366175E-01  0.249997990E+01
  Xx -0.719812821E-17 -0.498448266E+02  0.249999147E+01
    11
 # iter =  1750  time[fs]= 1.75000
   N -0.699392752E+00 -0.118423217E+01  0.249999339E+01
   N  0.699392752E+00 -0.118423217E+01  0.249999339E+01
   C -0.718089136E+00  0.125931006E+01  0.249999351E+01
   C  0.718089136E+00  0.125931006E+01  0.249999351E+01
   C -0.133973692E+01  0.131784591E-03  0.249999398E+01
   C  0.133973692E+01  0.131784591E-03  0.249999398E+01
   H -0.136389621E+01  0.230108729E+01  0.249997220E+01
   H  0.136389621E+01  0.230108729E+01  0.249997220E+01
   H -0.254586184E+01 -0.957584700E-01  0.249997094E+01
   H  0.254586184E+01 -0.957584700E-01  0.249997094E+01
  Xx -0.890920885E-17 -0.614853476E+02  0.249998879E+01
    11
 # iter =  2000  time[fs]= 2.00000
   N -0.708694565E+00 -0.119171172E+01  0.249999139E+01
   N  0.708694565E+00 -0.119171172E+01  0.249999139E+01
   C -0.725591128E+00  0.126412051E+01  0.249999107E+01
   C  0.725591128E+00  0.126412051E+01  0.249999107E+01
   C -0.134588231E+01 -0.101352862E-03  0.249999179E+01
   C  0.134588231E+01 -0.101352862E-03  0.249999179E+01
   H -0.139567145E+01  0.234876037E+01  0.249996570E+01
   H  0.139567145E+01  0.234876037E+01  0.249996570E+01
   H -0.260205667E+01 -0.100771516E+00  0.249995853E+01
   H  0.260205667E+01 -0.100771516E+00  0.249995853E+01
  Xx -0.106205377E-16 -0.731258809E+02  0.249998611E+01
    11
 # iter =  2250  time[fs]= 2.25000
   N -0.719091351E+00 -0.120023380E+01  0.249998931E+01
   N  0.719091351E+00 -0.120023380E+01  0.249998931E+01
   C -0.733813319E+00  0.126983537E+01  0.249998810E+01
   C  0.733813319E+00  0.126983537E+01  0.249998810E+01
   C -0.135283966E+01 -0.529766451E-03  0.249998962E+01
   C  0.135283966E+01 -0.529766451E-03  0.249998962E+01
   H -0.143109675E+01  0.240215549E+01  0.249995693E+01
   H  0.143109675E+01  0.240215549E+01  0.249995693E+01
   H -0.266700627E+01 -0.106305885E+00  0.249994101E+01
   H  0.266700627E+01 -0.106305885E+00  0.249994101E+01
  Xx -0.123320312E-16 -0.847664147E+02  0.249998343E+01
    11
 # iter =  2500  time[fs]= 2.50000
   N -0.730268045E+00 -0.120969115E+01  0.249998738E+01
   N  0.730268045E+00 -0.120969115E+01  0.249998738E+01
   C -0.742898410E+00  0.127640916E+01  0.249998544E+01
   C  0.742898410E+00  0.127640916E+01  0.249998544E+01
   C -0.136061092E+01 -0.131490655E-02  0.249998804E+01
   C  0.136061092E+01 -0.131490655E-02  0.249998804E+01
   H -0.147073359E+01  0.246165683E+01  0.249994646E+01
   H  0.147073359E+01  0.246165683E+01  0.249994646E+01
   H -0.274035266E+01 -0.112712438E+00  0.249992009E+01
   H  0.274035266E+01 -0.112712438E+00  0.249992009E+01
  Xx -0.140434698E-16 -0.964069484E+02  0.249998074E+01
    11
 # iter =  2750  time[fs]= 2.75000
   N -0.742168400E+00 -0.122022653E+01  0.249998565E+01
   N  0.742168400E+00 -0.122022653E+01  0.249998565E+01
   C -0.752473454E+00  0.128374075E+01  0.249998308E+01
   C  0.752473454E+00  0.128374075E+01  0.249998308E+01
   C -0.136926327E+01 -0.214800916E-02  0.249998648E+01
   C  0.136926327E+01 -0.214800916E-02  0.249998648E+01
   H -0.151453946E+01  0.252756860E+01  0.249993566E+01
   H  0.151453946E+01  0.252756860E+01  0.249993566E+01
   H -0.282083049E+01 -0.119738252E+00  0.249989484E+01
   H  0.282083049E+01 -0.119738252E+00  0.249989484E+01
  Xx -0.157548095E-16 -0.108047482E+03  0.249997806E+01
    11
 # iter =  3000  time[fs]= 3.00000
   N -0.754932879E+00 -0.123182064E+01  0.249998412E+01
   N  0.754932879E+00 -0.123182064E+01  0.249998412E+01
   C -0.762299489E+00  0.129183893E+01  0.249998086E+01
   C  0.762299489E+00  0.129183893E+01  0.249998086E+01
   C -0.137868249E+01 -0.308366173E-02  0.249998502E+01
   C  0.137868249E+01 -0.308366173E-02  0.249998502E+01
   H -0.156206359E+01  0.259985160E+01  0.249992455E+01
   H  0.156206359E+01  0.259985160E+01  0.249992455E+01
   H -0.290803870E+01 -0.127706545E+00  0.249986538E+01
   H  0.290803870E+01 -0.127706545E+00  0.249986538E+01
  Xx -0.174660167E-16 -0.119688016E+03  0.249997538E+01
    11
 # iter =  3250  time[fs]= 3.25000
   N -0.768375568E+00 -0.124449989E+01  0.249998271E+01
   N  0.768375568E+00 -0.124449989E+01  0.249998271E+01
   C -0.772414768E+00  0.130062206E+01  0.249997865E+01
   C  0.772414768E+00  0.130062206E+01  0.249997865E+01
   C -0.138894898E+01 -0.383624744E-02  0.249998365E+01
   C  0.138894898E+01 -0.383624744E-02  0.249998365E+01
   H -0.161270665E+01  0.267726962E+01  0.249991238E+01
   H  0.161270665E+01  0.267726962E+01  0.249991238E+01
   H -0.300150440E+01 -0.136221170E+00  0.249982931E+01
   H  0.300150440E+01 -0.136221170E+00  0.249982931E+01
  Xx -0.191772136E-16 -0.131328550E+03  0.249997270E+01
    11
 # iter =  3500  time[fs]= 3.50000
   N -0.782464841E+00 -0.125802057E+01  0.249998117E+01
   N  0.782464841E+00 -0.125802057E+01  0.249998117E+01
   C -0.782877389E+00  0.131011344E+01  0.249997721E+01
   C  0.782877389E+00  0.131011344E+01  0.249997721E+01
   C -0.140007938E+01 -0.469579229E-02  0.249998171E+01
   C  0.140007938E+01 -0.469579229E-02  0.249998171E+01
   H -0.166627318E+01  0.275935751E+01  0.249989448E+01
   H  0.166627318E+01  0.275935751E+01  0.249989448E+01
   H -0.310026476E+01 -0.145386706E+00  0.249978879E+01
   H  0.310026476E+01 -0.145386706E+00  0.249978879E+01
  Xx -0.208883769E-16 -0.142969083E+03  0.249997001E+01
    11
 # iter =  3750  time[fs]= 3.75000
   N -0.796914999E+00 -0.127230942E+01  0.249997981E+01
   N  0.796914999E+00 -0.127230942E+01  0.249997981E+01
   C -0.794152048E+00  0.132005807E+01  0.249997537E+01
   C  0.794152048E+00  0.132005807E+01  0.249997537E+01
   C -0.141199907E+01 -0.546550358E-02  0.249997958E+01
   C  0.141199907E+01 -0.546550358E-02  0.249997958E+01
   H -0.172299565E+01  0.284604685E+01  0.249987651E+01
   H  0.172299565E+01  0.284604685E+01  0.249987651E+01
   H -0.320368660E+01 -0.155102440E+00  0.249974825E+01
   H  0.320368660E+01 -0.155102440E+00  0.249974825E+01
  Xx -0.225995486E-16 -0.154609617E+03  0.249996733E+01
    11
 # iter =  4000  time[fs]= 4.00000
   N -0.811749972E+00 -0.128730347E+01  0.249997837E+01
   N  0.811749972E+00 -0.128730347E+01  0.249997837E+01
   C -0.805737319E+00  0.133066902E+01  0.249997368E+01
   C  0.805737319E+00  0.133066902E+01  0.249997368E+01
   C -0.142470697E+01 -0.628871681E-02  0.249997743E+01
   C  0.142470697E+01 -0.628871681E-02  0.249997743E+01
   H -0.178207730E+01  0.293699187E+01  0.249985748E+01
   H  0.178207730E+01  0.293699187E+01  0.249985748E+01
   H -0.331177186E+01 -0.165391797E+00  0.249970694E+01
   H  0.331177186E+01 -0.165391797E+00  0.249970694E+01
  Xx -0.243107157E-16 -0.166250151E+03  0.249996465E+01
    11
 # iter =  4250  time[fs]= 4.25000
   N -0.827082419E+00 -0.130274548E+01  0.249997734E+01
   N  0.827082419E+00 -0.130274548E+01  0.249997734E+01
   C -0.817626540E+00  0.134195069E+01  0.249997106E+01
   C  0.817626540E+00  0.134195069E+01  0.249997106E+01
   C -0.143806360E+01 -0.758631144E-02  0.249997592E+01
   C  0.143806360E+01 -0.758631144E-02  0.249997592E+01
   H -0.184373242E+01  0.303184361E+01  0.249983975E+01
   H  0.184373242E+01  0.303184361E+01  0.249983975E+01
   H -0.342413005E+01 -0.176346599E+00  0.249966584E+01
   H  0.342413005E+01 -0.176346599E+00  0.249966584E+01
  Xx -0.260219456E-16 -0.177890684E+03  0.249996197E+01
    11
 # iter =  4500  time[fs]= 4.50000
   N -0.842701563E+00 -0.131880858E+01  0.249997650E+01
   N  0.842701563E+00 -0.131880858E+01  0.249997650E+01
   C -0.829608411E+00  0.135388933E+01  0.249996798E+01
   C  0.829608411E+00  0.135388933E+01  0.249996798E+01
   C -0.145216804E+01 -0.891765647E-02  0.249997450E+01
   C  0.145216804E+01 -0.891765647E-02  0.249997450E+01
   H -0.190768866E+01  0.313037970E+01  0.249982062E+01
   H  0.190768866E+01  0.313037970E+01  0.249982062E+01
   H -0.354067104E+01 -0.187763830E+00  0.249962370E+01
   H  0.354067104E+01 -0.187763830E+00  0.249962370E+01
  Xx -0.277330752E-16 -0.189531218E+03  0.249995928E+01
    11
 # iter =  4750  time[fs]= 4.75000
   N -0.858428868E+00 -0.133560917E+01  0.249997574E+01
   N  0.858428868E+00 -0.133560917E+01  0.249997574E+01
   C -0.841867231E+00  0.136630049E+01  0.249996482E+01
   C  0.841867231E+00  0.136630049E+01  0.249996482E+01
   C -0.146693185E+01 -0.100921516E-01  0.249997300E+01
   C  0.146693185E+01 -0.100921516E-01  0.249997300E+01
   H -0.197392085E+01  0.323240053E+01  0.249980081E+01
   H  0.197392085E+01  0.323240053E+01  0.249980081E+01
   H -0.366101860E+01 -0.199711050E+00  0.249957800E+01
   H  0.366101860E+01 -0.199711050E+00  0.249957800E+01
  Xx -0.294441580E-16 -0.201171752E+03  0.249995660E+01
    11
 # iter =  5000  time[fs]= 5.00000
   N -0.874497234E+00 -0.135292782E+01  0.249997536E+01
   N  0.874497234E+00 -0.135292782E+01  0.249997536E+01
   C -0.854349259E+00  0.137926959E+01  0.249996184E+01
   C  0.854349259E+00  0.137926959E+01  0.249996184E+01
   C -0.148231619E+01 -0.114405304E-01  0.249997123E+01
   C  0.148231619E+01 -0.114405304E-01  0.249997123E+01
   H -0.204217088E+01  0.333765978E+01  0.249978132E+01
   H  0.204217088E+01  0.333765978E+01  0.249978132E+01
   H -0.378489996E+01 -0.212140427E+00  0.249952996E+01
   H  0.378489996E+01 -0.212140427E+00  0.249952996E+01
  Xx -0.311552200E-16 -0.212812286E+03  0.249995392E+01
    11
 # iter =  5250  time[fs]= 5.25000
   N -0.890976396E+00 -0.137067241E+01  0.249997526E+01
   N  0.890976396E+00 -0.137067241E+01  0.249997526E+01
   C -0.866842513E+00  0.139284207E+01  0.249995834E+01
   C  0.866842513E+00  0.139284207E+01  0.249995834E+01
   C -0.149832037E+01 -0.129944281E-01  0.249996904E+01
   C  0.149832037E+01 -0.129944281E-01  0.249996904E+01
   H -0.211230360E+01  0.344572188E+01  0.249976091E+01
   H  0.211230360E+01  0.344572188E+01  0.249976091E+01
   H -0.391204452E+01 -0.225023051E+00  0.249947994E+01
   H  0.391204452E+01 -0.225023051E+00  0.249947994E+01
  Xx -0.328662802E-16 -0.224452819E+03  0.249995124E+01
    11
 # iter =  5500  time[fs]= 5.50000
   N -0.907909791E+00 -0.138881665E+01  0.249997522E+01
   N  0.907909791E+00 -0.138881665E+01  0.249997522E+01
   C -0.879560185E+00  0.140682479E+01  0.249995481E+01
   C  0.879560185E+00  0.140682479E+01  0.249995481E+01
   C -0.151481965E+01 -0.147196416E-01  0.249996719E+01
   C  0.151481965E+01 -0.147196416E-01  0.249996719E+01
   H -0.218411432E+01  0.355654726E+01  0.249973910E+01
   H  0.218411432E+01  0.355654726E+01  0.249973910E+01
   H -0.404213149E+01 -0.238285540E+00  0.249942643E+01
   H  0.404213149E+01 -0.238285540E+00  0.249942643E+01
  Xx -0.345773111E-16 -0.236093353E+03  0.249994856E+01
    11
 # iter =  5750  time[fs]= 5.75000
   N -0.925103637E+00 -0.140737470E+01  0.249997499E+01
   N  0.925103637E+00 -0.140737470E+01  0.249997499E+01
   C -0.892541587E+00  0.142128659E+01  0.249995119E+01
   C  0.892541587E+00  0.142128659E+01  0.249995119E+01
   C -0.153171741E+01 -0.166167809E-01  0.249996632E+01
   C  0.153171741E+01 -0.166167809E-01  0.249996632E+01
   H -0.225754696E+01  0.366988589E+01  0.249971636E+01
   H  0.225754696E+01  0.366988589E+01  0.249971636E+01
   H -0.417503698E+01 -0.251934502E+00  0.249937259E+01
   H  0.417503698E+01 -0.251934502E+00  0.249937259E+01
  Xx -0.362883454E-16 -0.247733887E+03  0.249994587E+01
    11
 # iter =  6000  time[fs]= 6.00000
   N -0.942507842E+00 -0.142636287E+01  0.249997481E+01
   N  0.942507842E+00 -0.142636287E+01  0.249997481E+01
   C -0.905800351E+00  0.143615619E+01  0.249994761E+01
   C  0.905800351E+00  0.143615619E+01  0.249994761E+01
   C -0.154910502E+01 -0.185810372E-01  0.249996526E+01
   C  0.154910502E+01 -0.185810372E-01  0.249996526E+01
   H -0.233247173E+01  0.378557099E+01  0.249969119E+01
   H  0.233247173E+01  0.378557099E+01  0.249969119E+01
   H -0.431046599E+01 -0.265969235E+00  0.249931687E+01
   H  0.431046599E+01 -0.265969235E+00  0.249931687E+01
  Xx -0.379993306E-16 -0.259374421E+03  0.249994319E+01
    11
 # iter =  6250  time[fs]= 6.25000
   N -0.960116704E+00 -0.144587248E+01  0.249997446E+01
   N  0.960116704E+00 -0.144587248E+01  0.249997446E+01
   C -0.919219499E+00  0.145146358E+01  0.249994337E+01
   C  0.919219499E+00  0.145146358E+01  0.249994337E+01
   C -0.156696344E+01 -0.206138810E-01  0.249996456E+01
   C  0.156696344E+01 -0.206138810E-01  0.249996456E+01
   H -0.240881137E+01  0.390345248E+01  0.249966130E+01
   H  0.240881137E+01  0.390345248E+01  0.249966130E+01
   H -0.444818486E+01 -0.280321200E+00  0.249925679E+01
   H  0.444818486E+01 -0.280321200E+00  0.249925679E+01
  Xx -0.397103334E-16 -0.271014954E+03  0.249994051E+01
    11
 # iter =  6500  time[fs]= 6.50000
   N -0.978005027E+00 -0.146583049E+01  0.249997367E+01
   N  0.978005027E+00 -0.146583049E+01  0.249997367E+01
   C -0.932904667E+00  0.146708780E+01  0.249993965E+01
   C  0.932904667E+00  0.146708780E+01  0.249993965E+01
   C -0.158520505E+01 -0.226725829E-01  0.249996408E+01
   C  0.158520505E+01 -0.226725829E-01  0.249996408E+01
   H -0.248651826E+01  0.402344412E+01  0.249963040E+01
   H  0.248651826E+01  0.402344412E+01  0.249963040E+01
   H -0.458807175E+01 -0.295076018E+00  0.249919455E+01
   H  0.458807175E+01 -0.295076018E+00  0.249919455E+01
  Xx -0.414213191E-16 -0.282655488E+03  0.249993783E+01
    11
 # iter =  6750  time[fs]= 6.75000
   N -0.996128285E+00 -0.148617371E+01  0.249997301E+01
   N  0.996128285E+00 -0.148617371E+01  0.249997301E+01
   C -0.946883092E+00  0.148292524E+01  0.249993649E+01
   C  0.946883092E+00  0.148292524E+01  0.249993649E+01
   C -0.160380064E+01 -0.246612007E-01  0.249996385E+01
   C  0.160380064E+01 -0.246612007E-01  0.249996385E+01
   H -0.256540736E+01  0.414540964E+01  0.249960099E+01
   H  0.256540736E+01  0.414540964E+01  0.249960099E+01
   H -0.473004671E+01 -0.310193849E+00  0.249912951E+01
   H  0.473004671E+01 -0.310193849E+00  0.249912951E+01
  Xx -0.431322507E-16 -0.294296022E+03  0.249993514E+01
    11
 # iter =  7000  time[fs]= 7.00000
   N -0.101450027E+01 -0.150698539E+01  0.249997218E+01
   N  0.101450027E+01 -0.150698539E+01  0.249997218E+01
   C -0.960989832E+00  0.149911188E+01  0.249993312E+01
   C  0.960989832E+00  0.149911188E+01  0.249993312E+01
   C -0.162270108E+01 -0.266096437E-01  0.249996391E+01
   C  0.162270108E+01 -0.266096437E-01  0.249996391E+01
   H -0.264540494E+01  0.426910998E+01  0.249957247E+01
   H  0.264540494E+01  0.426910998E+01  0.249957247E+01
   H -0.487400032E+01 -0.325604335E+00  0.249906360E+01
   H  0.487400032E+01 -0.325604335E+00  0.249906360E+01
  Xx -0.448431364E-16 -0.305936555E+03  0.249993246E+01
    11
 # iter =  7250  time[fs]= 7.25000
   N -0.103300756E+01 -0.152816483E+01  0.249997124E+01
   N  0.103300756E+01 -0.152816483E+01  0.249997124E+01
   C -0.975306248E+00  0.151565877E+01  0.249992995E+01
   C  0.975306248E+00  0.151565877E+01  0.249992995E+01
   C -0.164185923E+01 -0.286164035E-01  0.249996341E+01
   C  0.164185923E+01 -0.286164035E-01  0.249996341E+01
   H -0.272640687E+01  0.439445045E+01  0.249953861E+01
   H  0.272640687E+01  0.439445045E+01  0.249953861E+01
   H -0.501978292E+01 -0.341353601E+00  0.249899602E+01
   H  0.501978292E+01 -0.341353601E+00  0.249899602E+01
  Xx -0.465540123E-16 -0.317577089E+03  0.249992978E+01
    11
 # iter =  7500  time[fs]= 7.50000
   N -0.105148250E+01 -0.154966481E+01  0.249997070E+01
   N  0.105148250E+01 -0.154966481E+01  0.249997070E+01
   C -0.989808308E+00  0.153250859E+01  0.249992673E+01
   C  0.989808308E+00  0.153250859E+01  0.249992673E+01
   C -0.166139743E+01 -0.305730965E-01  0.249996270E+01
   C  0.166139743E+01 -0.305730965E-01  0.249996270E+01
   H -0.280835104E+01  0.452132430E+01  0.249950394E+01
   H  0.280835104E+01  0.452132430E+01  0.249950394E+01
   H -0.516729586E+01 -0.357366619E+00  0.249892453E+01
   H  0.516729586E+01 -0.357366619E+00  0.249892453E+01
  Xx -0.482648687E-16 -0.329217623E+03  0.249992710E+01
    11
 # iter =  7750  time[fs]= 7.75000
   N -0.107006067E+01 -0.157147460E+01  0.249996954E+01
   N  0.107006067E+01 -0.157147460E+01  0.249996954E+01
   C -0.100439681E+01  0.154969646E+01  0.249992388E+01
   C  0.100439681E+01  0.154969646E+01  0.249992388E+01
   C -0.168130150E+01 -0.325682541E-01  0.249996265E+01
   C  0.168130150E+01 -0.325682541E-01  0.249996265E+01
   H -0.289120622E+01  0.464956932E+01  0.249947153E+01
   H  0.289120622E+01  0.464956932E+01  0.249947153E+01
   H -0.531633202E+01 -0.373670990E+00  0.249885499E+01
   H  0.531633202E+01 -0.373670990E+00  0.249885499E+01
  Xx -0.499757179E-16 -0.340858157E+03  0.249992442E+01
    11
 # iter =  8000  time[fs]= 8.00000
   N -0.108869747E+01 -0.159354047E+01  0.249996783E+01
   N  0.108869747E+01 -0.159354047E+01  0.249996783E+01
   C -0.101921533E+01  0.156708326E+01  0.249992112E+01
   C  0.101921533E+01  0.156708326E+01  0.249992112E+01
   C -0.170143149E+01 -0.345118621E-01  0.249996312E+01
   C  0.170143149E+01 -0.345118621E-01  0.249996312E+01
   H -0.297489166E+01  0.477914467E+01  0.249943731E+01
   H  0.297489166E+01  0.477914467E+01  0.249943731E+01
   H -0.546684987E+01 -0.390274588E+00  0.249878267E+01
   H  0.546684987E+01 -0.390274588E+00  0.249878267E+01
  Xx -0.516865842E-16 -0.352498690E+03  0.249992173E+01
    11
 # iter =  8250  time[fs]= 8.25000
   N -0.110745543E+01 -0.161578025E+01  0.249996646E+01
   N  0.110745543E+01 -0.161578025E+01  0.249996646E+01
   C -0.103424448E+01  0.158461721E+01  0.249991770E+01
   C  0.103424448E+01  0.158461721E+01  0.249991770E+01
   C -0.172183495E+01 -0.364441676E-01  0.249996340E+01
   C  0.172183495E+01 -0.364441676E-01  0.249996340E+01
   H -0.305940008E+01  0.490997977E+01  0.249940156E+01
   H  0.305940008E+01  0.490997977E+01  0.249940156E+01
   H -0.561874985E+01 -0.407107878E+00  0.249870666E+01
   H  0.561874985E+01 -0.407107878E+00  0.249870666E+01
  Xx -0.533974383E-16 -0.364139224E+03  0.249991905E+01
    11
 # iter =  8500  time[fs]= 8.50000
   N -0.112627206E+01 -0.163819561E+01  0.249996470E+01
   N  0.112627206E+01 -0.163819561E+01  0.249996470E+01
   C -0.104936035E+01  0.160242580E+01  0.249991492E+01
   C  0.104936035E+01  0.160242580E+01  0.249991492E+01
   C -0.174247661E+01 -0.385380682E-01  0.249996420E+01
   C  0.174247661E+01 -0.385380682E-01  0.249996420E+01
   H -0.314465286E+01  0.504202544E+01  0.249936245E+01
   H  0.314465286E+01  0.504202544E+01  0.249936245E+01
   H -0.577189737E+01 -0.424219977E+00  0.249862977E+01
   H  0.577189737E+01 -0.424219977E+00  0.249862977E+01
  Xx -0.551082716E-16 -0.375779758E+03  0.249991637E+01
    11
 # iter =  8750  time[fs]= 8.75000
   N -0.114532289E+01 -0.166077913E+01  0.249996343E+01
   N  0.114532289E+01 -0.166077913E+01  0.249996343E+01
   C -0.106462342E+01  0.162048593E+01  0.249991177E+01
   C  0.106462342E+01  0.162048593E+01  0.249991177E+01
   C -0.176331918E+01 -0.407285869E-01  0.249996456E+01
   C  0.176331918E+01 -0.407285869E-01  0.249996456E+01
   H -0.323058232E+01  0.517512817E+01  0.249932142E+01
   H  0.323058232E+01  0.517512817E+01  0.249932142E+01
   H -0.592625268E+01 -0.441556524E+00  0.249855499E+01
   H  0.592625268E+01 -0.441556524E+00  0.249855499E+01
  Xx -0.568190832E-16 -0.387420292E+03  0.249991369E+01
    11
 # iter =  9000  time[fs]= 9.00000
   N -0.116443453E+01 -0.168361833E+01  0.249996210E+01
   N  0.116443453E+01 -0.168361833E+01  0.249996210E+01
   C -0.108010513E+01  0.163866291E+01  0.249990877E+01
   C  0.108010513E+01  0.163866291E+01  0.249990877E+01
   C -0.178442642E+01 -0.429038015E-01  0.249996492E+01
   C  0.178442642E+01 -0.429038015E-01  0.249996492E+01
   H -0.331719686E+01  0.530928106E+01  0.249928121E+01
   H  0.331719686E+01  0.530928106E+01  0.249928121E+01
   H -0.608175514E+01 -0.459096920E+00  0.249848069E+01
   H  0.608175514E+01 -0.459096920E+00  0.249848069E+01
  Xx -0.585298771E-16 -0.399060825E+03  0.249991100E+01
    11
 # iter =  9250  time[fs]= 9.25000
   N -0.118363484E+01 -0.170670655E+01  0.249996072E+01
   N  0.118363484E+01 -0.170670655E+01  0.249996072E+01
   C -0.109574366E+01  0.165702580E+01  0.249990545E+01
   C  0.109574366E+01  0.165702580E+01  0.249990545E+01
   C -0.180574874E+01 -0.450538030E-01  0.249996585E+01
   C  0.180574874E+01 -0.450538030E-01  0.249996585E+01
   H -0.340440642E+01  0.544443462E+01  0.249923970E+01
   H  0.340440642E+01  0.544443462E+01  0.249923970E+01
   H -0.623828738E+01 -0.476797303E+00  0.249840405E+01
   H  0.623828738E+01 -0.476797303E+00  0.249840405E+01
  Xx -0.602406782E-16 -0.410701359E+03  0.249990832E+01
    11
 # iter =  9500  time[fs]= 9.50000
   N -0.120298609E+01 -0.173009507E+01  0.249995931E+01
   N  0.120298609E+01 -0.173009507E+01  0.249995931E+01
   C -0.111143653E+01  0.167556027E+01  0.249990188E+01
   C  0.111143653E+01  0.167556027E+01  0.249990188E+01
   C -0.182721805E+01 -0.471272492E-01  0.249996735E+01
   C  0.182721805E+01 -0.471272492E-01  0.249996735E+01
   H -0.349218641E+01  0.558047918E+01  0.249919700E+01
   H  0.349218641E+01  0.558047918E+01  0.249919700E+01
   H -0.639582753E+01 -0.494692997E+00  0.249832431E+01
   H  0.639582753E+01 -0.494692997E+00  0.249832431E+01
  Xx -0.619514631E-16 -0.422341893E+03  0.249990564E+01
    11
 # iter =  9750  time[fs]= 9.75000
   N -0.122247483E+01 -0.175369583E+01  0.249995851E+01
   N  0.122247483E+01 -0.175369583E+01  0.249995851E+01
   C -0.112724975E+01  0.169423480E+01  0.249989842E+01
   C  0.112724975E+01  0.169423480E+01  0.249989842E+01
   C -0.184886909E+01 -0.491963653E-01  0.249996865E+01
   C  0.184886909E+01 -0.491963653E-01  0.249996865E+01
   H -0.358056765E+01  0.571741498E+01  0.249915505E+01
   H  0.358056765E+01  0.571741498E+01  0.249915505E+01
   H -0.655440842E+01 -0.512781888E+00  0.249824082E+01
   H  0.655440842E+01 -0.512781888E+00  0.249824082E+01
  Xx -0.636622294E-16 -0.433982426E+03  0.249990296E+01
    11
 # iter = 10000  time[fs]=10.00000
   N -0.124208068E+01 -0.177741140E+01  0.249995759E+01
   N  0.124208068E+01 -0.177741140E+01  0.249995759E+01
   C -0.114316979E+01  0.171311401E+01  0.249989523E+01
   C  0.114316979E+01  0.171311401E+01  0.249989523E+01
   C -0.187077145E+01 -0.513501922E-01  0.249996955E+01
   C  0.187077145E+01 -0.513501922E-01  0.249996955E+01
   H -0.366944218E+01  0.585514645E+01  0.249910978E+01
   H  0.366944218E+01  0.585514645E+01  0.249910978E+01
   H -0.671388469E+01 -0.531040057E+00  0.249815400E+01
   H  0.671388469E+01 -0.531040057E+00  0.249815400E+01
  Xx -0.653729699E-16 -0.445622960E+03  0.249990027E+01
    11
 # iter = 10250  time[fs]=10.25000
   N -0.126185202E+01 -0.180119484E+01  0.249995643E+01
   N  0.126185202E+01 -0.180119484E+01  0.249995643E+01
   C -0.115917245E+01  0.173223710E+01  0.249989209E+01
   C  0.115917245E+01  0.173223710E+01  0.249989209E+01
   C -0.189281295E+01 -0.536739553E-01  0.249997069E+01
   C  0.189281295E+01 -0.536739553E-01  0.249997069E+01
   H -0.375882446E+01  0.599365712E+01  0.249906268E+01
   H  0.375882446E+01  0.599365712E+01  0.249906268E+01
   H -0.687418884E+01 -0.549476671E+00  0.249806642E+01
   H  0.687418884E+01 -0.549476671E+00  0.249806642E+01
  Xx -0.670836998E-16 -0.457263494E+03  0.249989759E+01
    11
 # iter = 10500  time[fs]=10.50000
   N -0.128178198E+01 -0.182508357E+01  0.249995522E+01
   N  0.128178198E+01 -0.182508357E+01  0.249995522E+01
   C -0.117540232E+01  0.175154884E+01  0.249988866E+01
   C  0.117540232E+01  0.175154884E+01  0.249988866E+01
   C -0.191491171E+01 -0.560679602E-01  0.249997190E+01
   C  0.191491171E+01 -0.560679602E-01  0.249997190E+01
   H -0.384865962E+01  0.613293504E+01  0.249901444E+01
   H  0.384865962E+01  0.613293504E+01  0.249901444E+01
   H -0.703538444E+01 -0.568071961E+00  0.249797897E+01
   H  0.703538444E+01 -0.568071961E+00  0.249797897E+01
  Xx -0.687944349E-16 -0.468904028E+03  0.249989491E+01
    11
 # iter = 10750  time[fs]=10.75000
   N -0.130169198E+01 -0.184906708E+01  0.249995426E+01
   N  0.130169198E+01 -0.184906708E+01  0.249995426E+01
   C -0.119176123E+01  0.177095001E+01  0.249988587E+01
   C  0.119176123E+01  0.177095001E+01  0.249988587E+01
   C -0.193724384E+01 -0.584304926E-01  0.249997293E+01
   C  0.193724384E+01 -0.584304926E-01  0.249997293E+01
   H -0.393894421E+01  0.627292022E+01  0.249896441E+01
   H  0.393894421E+01  0.627292022E+01  0.249896441E+01
   H -0.719734148E+01 -0.586826045E+00  0.249788915E+01
   H  0.719734148E+01 -0.586826045E+00  0.249788915E+01
  Xx -0.705051878E-16 -0.480544561E+03  0.249989223E+01
    11
 # iter = 11000  time[fs]=11.00000
   N -0.132159726E+01 -0.187320051E+01  0.249995374E+01
   N  0.132159726E+01 -0.187320051E+01  0.249995374E+01
   C -0.120827219E+01  0.179045808E+01  0.249988384E+01
   C  0.120827219E+01  0.179045808E+01  0.249988384E+01
   C -0.195973859E+01 -0.607156359E-01  0.249997354E+01
   C  0.195973859E+01 -0.607156359E-01  0.249997354E+01
   H -0.402966986E+01  0.641354946E+01  0.249891545E+01
   H  0.402966986E+01  0.641354946E+01  0.249891545E+01
   H -0.736006375E+01 -0.605744370E+00  0.249779838E+01
   H  0.736006375E+01 -0.605744370E+00  0.249779838E+01
  Xx -0.722159073E-16 -0.492185095E+03  0.249988955E+01
    11
 # iter = 11250  time[fs]=11.25000
   N -0.134159351E+01 -0.189751876E+01  0.249995313E+01
   N  0.134159351E+01 -0.189751876E+01  0.249995313E+01
   C -0.122490484E+01  0.181014698E+01  0.249988209E+01
   C  0.122490484E+01  0.181014698E+01  0.249988209E+01
   C -0.198230016E+01 -0.630020631E-01  0.249997257E+01
   C  0.198230016E+01 -0.630020631E-01  0.249997257E+01
   H -0.412077823E+01  0.655481679E+01  0.249886536E+01
   H  0.412077823E+01  0.655481679E+01  0.249886536E+01
   H -0.752349034E+01 -0.624801407E+00  0.249770417E+01
   H  0.752349034E+01 -0.624801407E+00  0.249770417E+01
  Xx -0.739265559E-16 -0.503825629E+03  0.249988686E+01
    11
 # iter = 11500  time[fs]=11.50000
   N -0.136166157E+01 -0.192201808E+01  0.249995275E+01
   N  0.136166157E+01 -0.192201808E+01  0.249995275E+01
   C -0.124165185E+01  0.182997543E+01  0.249988094E+01
   C  0.124165185E+01  0.182997543E+01  0.249988094E+01
   C -0.200500245E+01 -0.652662137E-01  0.249997191E+01
   C  0.200500245E+01 -0.652662137E-01  0.249997191E+01
   H -0.421228906E+01  0.669669931E+01  0.249881267E+01
   H  0.421228906E+01  0.669669931E+01  0.249881267E+01
   H -0.768759368E+01 -0.643990809E+00  0.249760769E+01
   H  0.768759368E+01 -0.643990809E+00  0.249760769E+01
  Xx -0.756371805E-16 -0.515466163E+03  0.249988418E+01
    11
 # iter = 11750  time[fs]=11.75000
   N -0.138174008E+01 -0.194669451E+01  0.249995230E+01
   N  0.138174008E+01 -0.194669451E+01  0.249995230E+01
   C -0.125848311E+01  0.184992066E+01  0.249987897E+01
   C  0.125848311E+01  0.184992066E+01  0.249987897E+01
   C -0.202787110E+01 -0.675405139E-01  0.249997121E+01
   C  0.202787110E+01 -0.675405139E-01  0.249997121E+01
   H -0.430416037E+01  0.683917237E+01  0.249875911E+01
   H  0.430416037E+01  0.683917237E+01  0.249875911E+01
   H -0.785240900E+01 -0.663333106E+00  0.249751082E+01
   H  0.785240900E+01 -0.663333106E+00  0.249751082E+01
  Xx -0.773477966E-16 -0.527106696E+03  0.249988150E+01
    11
 # iter = 12000  time[fs]=12.00000
   N -0.140188568E+01 -0.197160376E+01  0.249995160E+01
   N  0.140188568E+01 -0.197160376E+01  0.249995160E+01
   C -0.127531142E+01  0.187006949E+01  0.249987707E+01
   C  0.127531142E+01  0.187006949E+01  0.249987707E+01
   C -0.205088516E+01 -0.698501828E-01  0.249997147E+01
   C  0.205088516E+01 -0.698501828E-01  0.249997147E+01
   H -0.439637304E+01  0.698221384E+01  0.249870522E+01
   H  0.439637304E+01  0.698221384E+01  0.249870522E+01
   H -0.801786096E+01 -0.682800649E+00  0.249741322E+01
   H  0.801786096E+01 -0.682800649E+00  0.249741322E+01
  Xx -0.790584075E-16 -0.538747230E+03  0.249987882E+01
    11
 # iter = 12250  time[fs]=12.25000
   N -0.142214764E+01 -0.199667621E+01  0.249995099E+01
   N  0.142214764E+01 -0.199667621E+01  0.249995099E+01
   C -0.129219876E+01  0.189041413E+01  0.249987494E+01
   C  0.129219876E+01  0.189041413E+01  0.249987494E+01
   C -0.207404467E+01 -0.721702642E-01  0.249997253E+01
   C  0.207404467E+01 -0.721702642E-01  0.249997253E+01
   H -0.448893442E+01  0.712576813E+01  0.249865108E+01
   H  0.448893442E+01  0.712576813E+01  0.249865108E+01
   H -0.818396344E+01 -0.702387815E+00  0.249731505E+01
   H  0.818396344E+01 -0.702387815E+00  0.249731505E+01
  Xx -0.807689363E-16 -0.550387764E+03  0.249987613E+01
    11
 # iter = 12500  time[fs]=12.50000
   N -0.144251816E+01 -0.202185550E+01  0.249995038E+01
   N  0.144251816E+01 -0.202185550E+01  0.249995038E+01
   C -0.130913921E+01  0.191089571E+01  0.249987310E+01
   C  0.130913921E+01  0.191089571E+01  0.249987310E+01
   C -0.209733970E+01 -0.746074830E-01  0.249997365E+01
   C  0.209733970E+01 -0.746074830E-01  0.249997365E+01
   H -0.458181847E+01  0.726984835E+01  0.249859618E+01
   H  0.458181847E+01  0.726984835E+01  0.249859618E+01
   H -0.835071560E+01 -0.722126339E+00  0.249721587E+01
   H  0.835071560E+01 -0.722126339E+00  0.249721587E+01
  Xx -0.824794403E-16 -0.562028297E+03  0.249987345E+01
    11
 # iter = 12750  time[fs]=12.75000
   N -0.146301609E+01 -0.204713424E+01  0.249995041E+01
   N  0.146301609E+01 -0.204713424E+01  0.249995041E+01
   C -0.132611313E+01  0.193160743E+01  0.249987037E+01
   C  0.132611313E+01  0.193160743E+01  0.249987037E+01
   C -0.212078046E+01 -0.770963169E-01  0.249997464E+01
   C  0.212078046E+01 -0.770963169E-01  0.249997464E+01
   H -0.467502152E+01  0.741446053E+01  0.249853979E+01
   H  0.467502152E+01  0.741446053E+01  0.249853979E+01
   H -0.851810008E+01 -0.742001739E+00  0.249711553E+01
   H  0.851810008E+01 -0.742001739E+00  0.249711553E+01
  Xx -0.841898829E-16 -0.573668831E+03  0.249987077E+01
    11
 # iter = 13000  time[fs]=13.00000
   N -0.148358100E+01 -0.207247224E+01  0.249994996E+01
   N  0.148358100E+01 -0.207247224E+01  0.249994996E+01
   C -0.134320196E+01  0.195247026E+01  0.249986814E+01
   C  0.134320196E+01  0.195247026E+01  0.249986814E+01
   C -0.214437293E+01 -0.796530451E-01  0.249997587E+01
   C  0.214437293E+01 -0.796530451E-01  0.249997587E+01
   H -0.476851464E+01  0.755954887E+01  0.249848188E+01
   H  0.476851464E+01  0.755954887E+01  0.249848188E+01
   H -0.868612487E+01 -0.762009565E+00  0.249701369E+01
   H  0.868612487E+01 -0.762009565E+00  0.249701369E+01
  Xx -0.859002590E-16 -0.585309365E+03  0.249986809E+01
    11
 # iter = 13250  time[fs]=13.25000
   N -0.150420747E+01 -0.209789074E+01  0.249994909E+01
   N  0.150420747E+01 -0.209789074E+01  0.249994909E+01
   C -0.136033439E+01  0.197347998E+01  0.249986586E+01
   C  0.136033439E+01  0.197347998E+01  0.249986586E+01
   C -0.216811021E+01 -0.823077946E-01  0.249997735E+01
   C  0.216811021E+01 -0.823077946E-01  0.249997735E+01
   H -0.486232941E+01  0.770513459E+01  0.249842465E+01
   H  0.486232941E+01  0.770513459E+01  0.249842465E+01
   H -0.885477067E+01 -0.782156196E+00  0.249691089E+01
   H  0.885477067E+01 -0.782156196E+00  0.249691089E+01
  Xx -0.876106341E-16 -0.596949899E+03  0.249986540E+01
    11
 # iter = 13500  time[fs]=13.50000
   N -0.152492335E+01 -0.212340242E+01  0.249994827E+01
   N  0.152492335E+01 -0.212340242E+01  0.249994827E+01
   C -0.137757461E+01  0.199465788E+01  0.249986373E+01
   C  0.137757461E+01  0.199465788E+01  0.249986373E+01
   C -0.219193201E+01 -0.848898090E-01  0.249997925E+01
   C  0.219193201E+01 -0.848898090E-01  0.249997925E+01
   H -0.495641660E+01  0.785115758E+01  0.249836696E+01
   H  0.495641660E+01  0.785115758E+01  0.249836696E+01
   H -0.902403200E+01 -0.802424382E+00  0.249680731E+01
   H  0.902403200E+01 -0.802424382E+00  0.249680731E+01
  Xx -0.893210700E-16 -0.608590432E+03  0.249986272E+01
    11
 # iter = 13750  time[fs]=13.75000
   N -0.154566444E+01 -0.214903098E+01  0.249994729E+01
   N  0.154566444E+01 -0.214903098E+01  0.249994729E+01
   C -0.139490043E+01  0.201590740E+01  0.249986236E+01
   C  0.139490043E+01  0.201590740E+01  0.249986236E+01
   C -0.221585904E+01 -0.874558245E-01  0.249998012E+01
   C  0.221585904E+01 -0.874558245E-01  0.249998012E+01
   H -0.505078818E+01  0.799764339E+01  0.249830845E+01
   H  0.505078818E+01  0.799764339E+01  0.249830845E+01
   H -0.919388322E+01 -0.822818799E+00  0.249670307E+01
   H  0.919388322E+01 -0.822818799E+00  0.249670307E+01
  Xx -0.910315506E-16 -0.620230966E+03  0.249986004E+01
    11
 # iter = 14000  time[fs]=14.00000
   N -0.156641928E+01 -0.217477849E+01  0.249994699E+01
   N  0.156641928E+01 -0.217477849E+01  0.249994699E+01
   C -0.141229958E+01  0.203732955E+01  0.249986087E+01
   C  0.141229958E+01  0.203732955E+01  0.249986087E+01
   C -0.223989745E+01 -0.901246472E-01  0.249998128E+01
   C  0.223989745E+01 -0.901246472E-01  0.249998128E+01
   H -0.514545408E+01  0.814458234E+01  0.249824943E+01
   H  0.514545408E+01  0.814458234E+01  0.249824943E+01
   H -0.936430762E+01 -0.843343775E+00  0.249659869E+01
   H  0.936430762E+01 -0.843343775E+00  0.249659869E+01
  Xx -0.927420438E-16 -0.631871500E+03  0.249985736E+01
    11
 # iter = 14250  time[fs]=14.25000
   N -0.158716794E+01 -0.220066875E+01  0.249994690E+01
   N  0.158716794E+01 -0.220066875E+01  0.249994690E+01
   C -0.142980951E+01  0.205886394E+01  0.249985990E+01
   C  0.142980951E+01  0.205886394E+01  0.249985990E+01
   C -0.226405327E+01 -0.928227092E-01  0.249998245E+01
   C  0.226405327E+01 -0.928227092E-01  0.249998245E+01
   H -0.524040289E+01  0.829195602E+01  0.249819043E+01
   H  0.524040289E+01  0.829195602E+01  0.249819043E+01
   H -0.953529114E+01 -0.863998777E+00  0.249649393E+01
   H  0.953529114E+01 -0.863998777E+00  0.249649393E+01
  Xx -0.944525036E-16 -0.643512034E+03  0.249985468E+01
    11
 # iter = 14500  time[fs]=14.50000
   N -0.160788660E+01 -0.222672788E+01  0.249994630E+01
   N  0.160788660E+01 -0.222672788E+01  0.249994630E+01
   C -0.144735087E+01  0.208049417E+01  0.249985792E+01
   C  0.144735087E+01  0.208049417E+01  0.249985792E+01
   C -0.228835019E+01 -0.955673990E-01  0.249998388E+01
   C  0.228835019E+01 -0.955673990E-01  0.249998388E+01
   H -0.533563315E+01  0.843976223E+01  0.249813112E+01
   H  0.533563315E+01  0.843976223E+01  0.249813112E+01
   H -0.970681486E+01 -0.884779485E+00  0.249638810E+01
   H  0.970681486E+01 -0.884779485E+00  0.249638810E+01
  Xx -0.961629640E-16 -0.655152567E+03  0.249985199E+01
    11
 # iter = 14750  time[fs]=14.75000
   N -0.162865798E+01 -0.225286588E+01  0.249994566E+01
   N  0.162865798E+01 -0.225286588E+01  0.249994566E+01
   C -0.146497826E+01  0.210231309E+01  0.249985643E+01
   C  0.146497826E+01  0.210231309E+01  0.249985643E+01
   C -0.231274620E+01 -0.983747588E-01  0.249998575E+01
   C  0.231274620E+01 -0.983747588E-01  0.249998575E+01
   H -0.543113583E+01  0.858799733E+01  0.249807074E+01
   H  0.543113583E+01  0.858799733E+01  0.249807074E+01
   H -0.987886010E+01 -0.905679714E+00  0.249628150E+01
   H  0.987886010E+01 -0.905679714E+00  0.249628150E+01
  Xx -0.978734081E-16 -0.666793101E+03  0.249984931E+01
    11
 # iter = 15000  time[fs]=15.00000
   N -0.164947786E+01 -0.227909943E+01  0.249994525E+01
   N  0.164947786E+01 -0.227909943E+01  0.249994525E+01
   C -0.148268384E+01  0.212417964E+01  0.249985513E+01
   C  0.148268384E+01  0.212417964E+01  0.249985513E+01
   C -0.233726704E+01 -0.101225584E+00  0.249998740E+01
   C  0.233726704E+01 -0.101225584E+00  0.249998740E+01
   H -0.552691120E+01  0.873665394E+01  0.249800965E+01
   H  0.552691120E+01  0.873665394E+01  0.249800965E+01
   H -0.100514083E+02 -0.926701227E+00  0.249617407E+01
   H  0.100514083E+02 -0.926701227E+00  0.249617407E+01
  Xx -0.995838208E-16 -0.678433635E+03  0.249984663E+01
    11
 # iter = 15250  time[fs]=15.25000
   N -0.167036836E+01 -0.230542284E+01  0.249994479E+01
   N  0.167036836E+01 -0.230542284E+01  0.249994479E+01
   C -0.150042413E+01  0.214619537E+01  0.249985326E+01
   C  0.150042413E+01  0.214619537E+01  0.249985326E+01
   C -0.236191038E+01 -0.104066896E+00  0.249998973E+01
   C  0.236191038E+01 -0.104066896E+00  0.249998973E+01
   H -0.562294309E+01  0.888571875E+01  0.249794782E+01
   H  0.562294309E+01  0.888571875E+01  0.249794782E+01
   H -0.102244475E+02 -0.947835939E+00  0.249606556E+01
   H  0.102244475E+02 -0.947835939E+00  0.249606556E+01
  Xx -0.101294181E-15 -0.690074169E+03  0.249984395E+01
    11
 # iter = 15500  time[fs]=15.50000
   N -0.169133290E+01 -0.233181062E+01  0.249994397E+01
   N  0.169133290E+01 -0.233181062E+01  0.249994397E+01
   C -0.151827198E+01  0.216831489E+01  0.249985144E+01
   C  0.151827198E+01  0.216831489E+01  0.249985144E+01
   C -0.238665429E+01 -0.106893544E+00  0.249999220E+01
   C  0.238665429E+01 -0.106893544E+00  0.249999220E+01
   H -0.571922890E+01  0.903518161E+01  0.249788536E+01
   H  0.571922890E+01  0.903518161E+01  0.249788536E+01
   H -0.103979635E+02 -0.969079625E+00  0.249595601E+01
   H  0.103979635E+02 -0.969079625E+00  0.249595601E+01
  Xx -0.103004482E-15 -0.701714702E+03  0.249984126E+01
    11
 # iter = 15750  time[fs]=15.75000
   N -0.171235544E+01 -0.235825897E+01  0.249994317E+01
   N  0.171235544E+01 -0.235825897E+01  0.249994317E+01
   C -0.153616754E+01  0.219055583E+01  0.249984970E+01
   C  0.153616754E+01  0.219055583E+01  0.249984970E+01
   C -0.241153248E+01 -0.109717402E+00  0.249999411E+01
   C  0.241153248E+01 -0.109717402E+00  0.249999411E+01
   H -0.581576362E+01  0.918503491E+01  0.249782272E+01
   H  0.581576362E+01  0.918503491E+01  0.249782272E+01
   H -0.105719447E+02 -0.990434678E+00  0.249584546E+01
   H  0.105719447E+02 -0.990434678E+00  0.249584546E+01
  Xx -0.104714735E-15 -0.713355236E+03  0.249983858E+01
    11
 # iter = 16000  time[fs]=16.00000
   N -0.173347132E+01 -0.238478450E+01  0.249994272E+01
   N  0.173347132E+01 -0.238478450E+01  0.249994272E+01
   C -0.155411872E+01  0.221288229E+01  0.249984830E+01
   C  0.155411872E+01  0.221288229E+01  0.249984830E+01
   C -0.243650504E+01 -0.112559120E+00  0.249999658E+01
   C  0.243650504E+01 -0.112559120E+00  0.249999658E+01
   H -0.591254642E+01  0.933527209E+01  0.249776006E+01
   H  0.591254642E+01  0.933527209E+01  0.249776006E+01
   H -0.107463751E+02 -0.101190090E+01  0.249573416E+01
   H  0.107463751E+02 -0.101190090E+01  0.249573416E+01
  Xx -0.106424973E-15 -0.724995770E+03  0.249983590E+01
    11
 # iter = 16250  time[fs]=16.25000
   N -0.175463702E+01 -0.241140183E+01  0.249994204E+01
   N  0.175463702E+01 -0.241140183E+01  0.249994204E+01
   C -0.157213197E+01  0.223531323E+01  0.249984640E+01
   C  0.157213197E+01  0.223531323E+01  0.249984640E+01
   C -0.246159319E+01 -0.115431241E+00  0.249999959E+01
   C  0.246159319E+01 -0.115431241E+00  0.249999959E+01
   H -0.600956690E+01  0.948587619E+01  0.249769665E+01
   H  0.600956690E+01  0.948587619E+01  0.249769665E+01
   H -0.109212402E+02 -0.103347099E+01  0.249562228E+01
   H  0.109212402E+02 -0.103347099E+01  0.249562228E+01
  Xx -0.108135224E-15 -0.736636303E+03  0.249983322E+01
    11
 # iter = 16500  time[fs]=16.50000
   N -0.177584297E+01 -0.243812282E+01  0.249994100E+01
   N  0.177584297E+01 -0.243812282E+01  0.249994100E+01
   C -0.159020839E+01  0.225783590E+01  0.249984452E+01
   C  0.159020839E+01  0.225783590E+01  0.249984452E+01
   C -0.248680576E+01 -0.118259404E+00  0.250000245E+01
   C  0.248680576E+01 -0.118259404E+00  0.250000245E+01
   H -0.610681228E+01  0.963682962E+01  0.249763223E+01
   H  0.610681228E+01  0.963682962E+01  0.249763223E+01
   H -0.110965276E+02 -0.105513623E+01  0.249551040E+01
   H  0.110965276E+02 -0.105513623E+01  0.249551040E+01
  Xx -0.109845494E-15 -0.748276837E+03  0.249983053E+01
    11
 # iter = 16750  time[fs]=16.75000
   N -0.179704576E+01 -0.246496392E+01  0.249993985E+01
   N  0.179704576E+01 -0.246496392E+01  0.249993985E+01
   C -0.160833264E+01  0.228046682E+01  0.249984286E+01
   C  0.160833264E+01  0.228046682E+01  0.249984286E+01
   C -0.251208609E+01 -0.121126334E+00  0.250000602E+01
   C  0.251208609E+01 -0.121126334E+00  0.250000602E+01
   H -0.620428265E+01  0.978812955E+01  0.249756762E+01
   H  0.620428265E+01  0.978812955E+01  0.249756762E+01
   H -0.112722255E+02 -0.107690058E+01  0.249539852E+01
   H  0.112722255E+02 -0.107690058E+01  0.249539852E+01
  Xx -0.111555773E-15 -0.759917371E+03  0.249982785E+01
    11
 # iter = 17000  time[fs]=17.00000
   N -0.181822446E+01 -0.249190599E+01  0.249993945E+01
   N  0.181822446E+01 -0.249190599E+01  0.249993945E+01
   C -0.162656337E+01  0.230320067E+01  0.249984127E+01
   C  0.162656337E+01  0.230320067E+01  0.249984127E+01
   C -0.253749464E+01 -0.124080740E+00  0.250000969E+01
   C  0.253749464E+01 -0.124080740E+00  0.250000969E+01
   H -0.630198000E+01  0.993977360E+01  0.249750300E+01
   H  0.630198000E+01  0.993977360E+01  0.249750300E+01
   H -0.114483190E+02 -0.109876638E+01  0.249528663E+01
   H  0.114483190E+02 -0.109876638E+01  0.249528663E+01
  Xx -0.113266088E-15 -0.771557905E+03  0.249982517E+01
    11
 # iter = 17250  time[fs]=17.25000
   N -0.183940227E+01 -0.251891603E+01  0.249993849E+01
   N  0.183940227E+01 -0.251891603E+01  0.249993849E+01
   C -0.164483862E+01  0.232602632E+01  0.249983965E+01
   C  0.164483862E+01  0.232602632E+01  0.249983965E+01
   C -0.256298005E+01 -0.127097324E+00  0.250001282E+01
   C  0.256298005E+01 -0.127097324E+00  0.250001282E+01
   H -0.639989004E+01  0.100917471E+02  0.249743831E+01
   H  0.639989004E+01  0.100917471E+02  0.249743831E+01
   H -0.116248027E+02 -0.112072679E+01  0.249517475E+01
   H  0.116248027E+02 -0.112072679E+01  0.249517475E+01
  Xx -0.114976400E-15 -0.783198438E+03  0.249982249E+01
    11
 # iter = 17500  time[fs]=17.50000
   N -0.186058926E+01 -0.254596867E+01  0.249993756E+01
   N  0.186058926E+01 -0.254596867E+01  0.249993756E+01
   C -0.166314625E+01  0.234899388E+01  0.249983814E+01
   C  0.166314625E+01  0.234899388E+01  0.249983814E+01
   C -0.258854836E+01 -0.130131201E+00  0.250001614E+01
   C  0.258854836E+01 -0.130131201E+00  0.250001614E+01
   H -0.649799968E+01  0.102440351E+02  0.249737323E+01
   H  0.649799968E+01  0.102440351E+02  0.249737323E+01
   H -0.118016677E+02 -0.114277415E+01  0.249506287E+01
   H  0.118016677E+02 -0.114277415E+01  0.249506287E+01
  Xx -0.116686682E-15 -0.794838972E+03  0.249981981E+01
    11
 # iter = 17750  time[fs]=17.75000
   N -0.188179817E+01 -0.257305174E+01  0.249993698E+01
   N  0.188179817E+01 -0.257305174E+01  0.249993698E+01
   C -0.168150199E+01  0.237206676E+01  0.249983644E+01
   C  0.168150199E+01  0.237206676E+01  0.249983644E+01
   C -0.261419542E+01 -0.133205544E+00  0.250001966E+01
   C  0.261419542E+01 -0.133205544E+00  0.250001966E+01
   H -0.659630890E+01  0.103966315E+02  0.249730806E+01
   H  0.659630890E+01  0.103966315E+02  0.249730806E+01
   H -0.119789023E+02 -0.116490852E+01  0.249495091E+01
   H  0.119789023E+02 -0.116490852E+01  0.249495091E+01
  Xx -0.118396963E-15 -0.806479506E+03  0.249981712E+01
    11
 # iter = 18000  time[fs]=18.00000
   N -0.190305216E+01 -0.260013940E+01  0.249993620E+01
   N  0.190305216E+01 -0.260013940E+01  0.249993620E+01
   C -0.169991234E+01  0.239522227E+01  0.249983439E+01
   C  0.169991234E+01  0.239522227E+01  0.249983439E+01
   C -0.263994728E+01 -0.136355086E+00  0.250002294E+01
   C  0.263994728E+01 -0.136355086E+00  0.250002294E+01
   H -0.669481977E+01  0.105495328E+02  0.249724289E+01
   H  0.669481977E+01  0.105495328E+02  0.249724289E+01
   H -0.121564916E+02 -0.118713187E+01  0.249483867E+01
   H  0.121564916E+02 -0.118713187E+01  0.249483867E+01
  Xx -0.120107234E-15 -0.818120040E+03  0.249981444E+01
    11
 # iter = 18250  time[fs]=18.25000
   N -0.192436086E+01 -0.262726419E+01  0.249993536E+01
   N  0.192436086E+01 -0.262726419E+01  0.249993536E+01
   C -0.171836896E+01  0.241851060E+01  0.249983301E+01
   C  0.171836896E+01  0.241851060E+01  0.249983301E+01
   C -0.266577140E+01 -0.139586130E+00  0.250002637E+01
   C  0.266577140E+01 -0.139586130E+00  0.250002637E+01
   H -0.679352794E+01  0.107027318E+02  0.249717773E+01
   H  0.679352794E+01  0.107027318E+02  0.249717773E+01
   H -0.123344256E+02 -0.120944391E+01  0.249472643E+01
   H  0.123344256E+02 -0.120944391E+01  0.249472643E+01
  Xx -0.121817467E-15 -0.829760573E+03  0.249981176E+01
    11
 # iter = 18500  time[fs]=18.50000
   N -0.194573947E+01 -0.265444941E+01  0.249993468E+01
   N  0.194573947E+01 -0.265444941E+01  0.249993468E+01
   C -0.173687925E+01  0.244190870E+01  0.249983163E+01
   C  0.173687925E+01  0.244190870E+01  0.249983163E+01
   C -0.269171790E+01 -0.142852217E+00  0.250003031E+01
   C  0.269171790E+01 -0.142852217E+00  0.250003031E+01
   H -0.689242425E+01  0.108562174E+02  0.249711256E+01
   H  0.689242425E+01  0.108562174E+02  0.249711256E+01
   H -0.125126947E+02 -0.123183795E+01  0.249461419E+01
   H  0.125126947E+02 -0.123183795E+01  0.249461419E+01
  Xx -0.123527691E-15 -0.841401107E+03  0.249980908E+01
    11
 # iter = 18750  time[fs]=18.75000
   N -0.196717935E+01 -0.268172646E+01  0.249993384E+01
   N  0.196717935E+01 -0.268172646E+01  0.249993384E+01
   C -0.175545261E+01  0.246540814E+01  0.249983020E+01
   C  0.175545261E+01  0.246540814E+01  0.249983020E+01
   C -0.271772604E+01 -0.146137740E+00  0.250003343E+01
   C  0.271772604E+01 -0.146137740E+00  0.250003343E+01
   H -0.699149884E+01  0.110099787E+02  0.249704740E+01
   H  0.699149884E+01  0.110099787E+02  0.249704740E+01
   H -0.126912932E+02 -0.125430909E+01  0.249450195E+01
   H  0.126912932E+02 -0.125430909E+01  0.249450195E+01
  Xx -0.125237938E-15 -0.853041641E+03  0.249980639E+01
    11
 # iter = 19000  time[fs]=19.00000
   N -0.198867390E+01 -0.270910918E+01  0.249993251E+01
   N  0.198867390E+01 -0.270910918E+01  0.249993251E+01
   C -0.177405830E+01  0.248904390E+01  0.249982822E+01
   C  0.177405830E+01  0.248904390E+01  0.249982822E+01
   C -0.274382711E+01 -0.149503304E+00  0.250003778E+01
   C  0.274382711E+01 -0.149503304E+00  0.250003778E+01
   H -0.709074914E+01  0.111640110E+02  0.249698223E+01
   H  0.709074914E+01  0.111640110E+02  0.249698223E+01
   H -0.128702119E+02 -0.127685755E+01  0.249438971E+01
   H  0.128702119E+02 -0.127685755E+01  0.249438971E+01
  Xx -0.126948192E-15 -0.864682174E+03  0.249980371E+01
    11
 # iter = 19250  time[fs]=19.25000
   N -0.201019032E+01 -0.273658657E+01  0.249993178E+01
   N  0.201019032E+01 -0.273658657E+01  0.249993178E+01
   C -0.179274175E+01  0.251278658E+01  0.249982672E+01
   C  0.179274175E+01  0.251278658E+01  0.249982672E+01
   C -0.276997653E+01 -0.152877615E+00  0.250004206E+01
   C  0.276997653E+01 -0.152877615E+00  0.250004206E+01
   H -0.719017220E+01  0.113183086E+02  0.249691707E+01
   H  0.719017220E+01  0.113183086E+02  0.249691707E+01
   H -0.130494426E+02 -0.129948282E+01  0.249427747E+01
   H  0.130494426E+02 -0.129948282E+01  0.249427747E+01
  Xx -0.128658434E-15 -0.876322708E+03  0.249980103E+01
    11
 # iter = 19500  time[fs]=19.50000
   N -0.203172308E+01 -0.276413698E+01  0.249993134E+01
   N  0.203172308E+01 -0.276413698E+01  0.249993134E+01
   C -0.181146166E+01  0.253661126E+01  0.249982459E+01
   C  0.181146166E+01  0.253661126E+01  0.249982459E+01
   C -0.279617879E+01 -0.156380039E+00  0.250004648E+01
   C  0.279617879E+01 -0.156380039E+00  0.250004648E+01
   H -0.728976674E+01  0.114728671E+02  0.249685190E+01
   H  0.728976674E+01  0.114728671E+02  0.249685190E+01
   H -0.132289759E+02 -0.132218542E+01  0.249416524E+01
   H  0.132289759E+02 -0.132218542E+01  0.249416524E+01
  Xx -0.130368688E-15 -0.887963242E+03  0.249979835E+01
    11
 # iter = 19750  time[fs]=19.75000
   N -0.205325461E+01 -0.279172866E+01  0.249993125E+01
   N  0.205325461E+01 -0.279172866E+01  0.249993125E+01
   C -0.183021473E+01  0.256057480E+01  0.249982293E+01
   C  0.183021473E+01  0.256057480E+01  0.249982293E+01
   C -0.282245223E+01 -0.159910904E+00  0.250005110E+01
   C  0.282245223E+01 -0.159910904E+00  0.250005110E+01
   H -0.738952365E+01  0.116276763E+02  0.249678673E+01
   H  0.738952365E+01  0.116276763E+02  0.249678673E+01
   H -0.134088062E+02 -0.134495996E+01  0.249405300E+01
   H  0.134088062E+02 -0.134495996E+01  0.249405300E+01
  Xx -0.132078981E-15 -0.899603776E+03  0.249979566E+01
    11
 # iter = 20000  time[fs]=20.00000
   N -0.207477268E+01 -0.281935675E+01  0.249993100E+01
   N  0.207477268E+01 -0.281935675E+01  0.249993100E+01
   C -0.184901678E+01  0.258461058E+01  0.249982057E+01
   C  0.184901678E+01  0.258461058E+01  0.249982057E+01
   C -0.284876953E+01 -0.163459242E+00  0.250005517E+01
   C  0.284876953E+01 -0.163459242E+00  0.250005517E+01
   H -0.748943634E+01  0.117827274E+02  0.249672157E+01
   H  0.748943634E+01  0.117827274E+02  0.249672157E+01
   H -0.135889259E+02 -0.136780232E+01  0.249394076E+01
   H  0.135889259E+02 -0.136780232E+01  0.249394076E+01
  Xx -0.133789286E-15 -0.911244309E+03  0.249979298E+01
    11
 # iter = 20250  time[fs]=20.25000
   N -0.209625744E+01 -0.284701482E+01  0.249993116E+01
   N  0.209625744E+01 -0.284701482E+01  0.249993116E+01
   C -0.186783200E+01  0.260872995E+01  0.249981805E+01
   C  0.186783200E+01  0.260872995E+01  0.249981805E+01
   C -0.287514396E+01 -0.167012481E+00  0.250005959E+01
   C  0.287514396E+01 -0.167012481E+00  0.250005959E+01
   H -0.758949966E+01  0.119380131E+02  0.249665640E+01
   H  0.758949966E+01  0.119380131E+02  0.249665640E+01
   H -0.137693281E+02 -0.139070966E+01  0.249382852E+01
   H  0.137693281E+02 -0.139070966E+01  0.249382852E+01
  Xx -0.135499569E-15 -0.922884843E+03  0.249979030E+01
    11
 # iter = 20500  time[fs]=20.50000
   N -0.211773750E+01 -0.287471438E+01  0.249993105E+01
   N  0.211773750E+01 -0.287471438E+01  0.249993105E+01
   C -0.188668138E+01  0.263295429E+01  0.249981578E+01
   C  0.188668138E+01  0.263295429E+01  0.249981578E+01
   C -0.290159534E+01 -0.170566761E+00  0.250006516E+01
   C  0.290159534E+01 -0.170566761E+00  0.250006516E+01
   H -0.768971249E+01  0.120935300E+02  0.249659124E+01
   H  0.768971249E+01  0.120935300E+02  0.249659124E+01
   H -0.139500040E+02 -0.141368212E+01  0.249371628E+01
   H  0.139500040E+02 -0.141368212E+01  0.249371628E+01
  Xx -0.137209860E-15 -0.934525377E+03  0.249978762E+01
    11
 # iter = 20750  time[fs]=20.75000
   N -0.213922495E+01 -0.290247255E+01  0.249993055E+01
   N  0.213922495E+01 -0.290247255E+01  0.249993055E+01
   C -0.190560043E+01  0.265724814E+01  0.249981311E+01
   C  0.190560043E+01  0.265724814E+01  0.249981311E+01
   C -0.292809938E+01 -0.174178685E+00  0.250006956E+01
   C  0.292809938E+01 -0.174178685E+00  0.250006956E+01
   H -0.779007580E+01  0.122492769E+02  0.249652607E+01
   H  0.779007580E+01  0.122492769E+02  0.249652607E+01
   H -0.141309455E+02 -0.143672202E+01  0.249360404E+01
   H  0.141309455E+02 -0.143672202E+01  0.249360404E+01
  Xx -0.138920137E-15 -0.946165911E+03  0.249978494E+01
    11
 # iter = 21000  time[fs]=21.00000
   N -0.216074144E+01 -0.293029784E+01  0.249993037E+01
   N  0.216074144E+01 -0.293029784E+01  0.249993037E+01
   C -0.192453372E+01  0.268163561E+01  0.249981054E+01
   C  0.192453372E+01  0.268163561E+01  0.249981054E+01
   C -0.295469202E+01 -0.177854697E+00  0.250007513E+01
   C  0.295469202E+01 -0.177854697E+00  0.250007513E+01
   H -0.789058641E+01  0.124052494E+02  0.249646091E+01
   H  0.789058641E+01  0.124052494E+02  0.249646091E+01
   H -0.143121464E+02 -0.145982877E+01  0.249349180E+01
   H  0.143121464E+02 -0.145982877E+01  0.249349180E+01
  Xx -0.140630388E-15 -0.957806444E+03  0.249978225E+01
    11
 # iter = 21250  time[fs]=21.25000
   N -0.218229283E+01 -0.295822518E+01  0.249993015E+01
   N  0.218229283E+01 -0.295822518E+01  0.249993015E+01
   C -0.194355734E+01  0.270610892E+01  0.249980838E+01
   C  0.194355734E+01  0.270610892E+01  0.249980838E+01
   C -0.298133509E+01 -0.181578173E+00  0.250008108E+01
   C  0.298133509E+01 -0.181578173E+00  0.250008108E+01
   H -0.799123830E+01  0.125614394E+02  0.249639574E+01
   H  0.799123830E+01  0.125614394E+02  0.249639574E+01
   H -0.144936017E+02 -0.148299932E+01  0.249337956E+01
   H  0.144936017E+02 -0.148299932E+01  0.249337956E+01
  Xx -0.142340597E-15 -0.969446978E+03  0.249977957E+01
    11
 # iter = 21500  time[fs]=21.50000
   N -0.220390539E+01 -0.298625541E+01  0.249993017E+01
   N  0.220390539E+01 -0.298625541E+01  0.249993017E+01
   C -0.196260481E+01  0.273066244E+01  0.249980553E+01
   C  0.196260481E+01  0.273066244E+01  0.249980553E+01
   C -0.300805027E+01 -0.185327208E+00  0.250008619E+01
   C  0.300805027E+01 -0.185327208E+00  0.250008619E+01
   H -0.809202519E+01  0.127178391E+02  0.249633058E+01
   H  0.809202519E+01  0.127178391E+02  0.249633058E+01
   H -0.146753060E+02 -0.150622961E+01  0.249326732E+01
   H  0.146753060E+02 -0.150622961E+01  0.249326732E+01
  Xx -0.144050769E-15 -0.981087512E+03  0.249977689E+01
    11
 # iter = 21750  time[fs]=21.75000
   N -0.222557895E+01 -0.301436796E+01  0.249993008E+01
   N  0.222557895E+01 -0.301436796E+01  0.249993008E+01
   C -0.198169349E+01  0.275530442E+01  0.249980299E+01
   C  0.198169349E+01  0.275530442E+01  0.249980299E+01
   C -0.303483617E+01 -0.189101337E+00  0.250009233E+01
   C  0.303483617E+01 -0.189101337E+00  0.250009233E+01
   H -0.819294522E+01  0.128744433E+02  0.249626541E+01
   H  0.819294522E+01  0.128744433E+02  0.249626541E+01
   H -0.148572527E+02 -0.152951747E+01  0.249315508E+01
   H  0.148572527E+02 -0.152951747E+01  0.249315508E+01
  Xx -0.145760942E-15 -0.992728045E+03  0.249977421E+01
    11
 # iter = 22000  time[fs]=22.00000
   N -0.224729574E+01 -0.304253570E+01  0.249992993E+01
   N  0.224729574E+01 -0.304253570E+01  0.249992993E+01
   C -0.200084986E+01  0.277999309E+01  0.249980053E+01
   C  0.200084986E+01  0.277999309E+01  0.249980053E+01
   C -0.306166684E+01 -0.192903605E+00  0.250009822E+01
   C  0.306166684E+01 -0.192903605E+00  0.250009822E+01
   H -0.829399547E+01  0.130312481E+02  0.249620024E+01
   H  0.829399547E+01  0.130312481E+02  0.249620024E+01
   H -0.150394357E+02 -0.155286248E+01  0.249304284E+01
   H  0.150394357E+02 -0.155286248E+01  0.249304284E+01
  Xx -0.147471135E-15 -0.100436858E+04  0.249977152E+01
    11
 # iter = 22250  time[fs]=22.25000
   N -0.226901903E+01 -0.307073019E+01  0.249993003E+01
   N  0.226901903E+01 -0.307073019E+01  0.249993003E+01
   C -0.202002665E+01  0.280475903E+01  0.249979795E+01
   C  0.202002665E+01  0.280475903E+01  0.249979795E+01
   C -0.308855367E+01 -0.196761855E+00  0.250010381E+01
   C  0.308855367E+01 -0.196761855E+00  0.250010381E+01
   H -0.839517451E+01  0.131882498E+02  0.249613508E+01
   H  0.839517451E+01  0.131882498E+02  0.249613508E+01
   H -0.152218499E+02 -0.157626510E+01  0.249293061E+01
   H  0.152218499E+02 -0.157626510E+01  0.249293061E+01
  Xx -0.149181328E-15 -0.101600911E+04  0.249976884E+01
    11
 # iter = 22500  time[fs]=22.50000
   N -0.229072065E+01 -0.309894875E+01  0.249993015E+01
   N  0.229072065E+01 -0.309894875E+01  0.249993015E+01
   C -0.203925313E+01  0.282957568E+01  0.249979542E+01
   C  0.203925313E+01  0.282957568E+01  0.249979542E+01
   C -0.311551255E+01 -0.200675049E+00  0.250011038E+01
   C  0.311551255E+01 -0.200675049E+00  0.250011038E+01
   H -0.849648096E+01  0.133454455E+02  0.249606991E+01
   H  0.849648096E+01  0.133454455E+02  0.249606991E+01
   H -0.154044898E+02 -0.159972519E+01  0.249281837E+01
   H  0.154044898E+02 -0.159972519E+01  0.249281837E+01
  Xx -0.150891539E-15 -0.102764965E+04  0.249976616E+01
    11
 # iter = 22750  time[fs]=22.75000
   N -0.231238413E+01 -0.312721742E+01  0.249993035E+01
   N  0.231238413E+01 -0.312721742E+01  0.249993035E+01
   C -0.205854033E+01  0.285445337E+01  0.249979255E+01
   C  0.205854033E+01  0.285445337E+01  0.249979255E+01
   C -0.314250202E+01 -0.204638395E+00  0.250011644E+01
   C  0.314250202E+01 -0.204638395E+00  0.250011644E+01
   H -0.859791170E+01  0.135028310E+02  0.249600475E+01
   H  0.859791170E+01  0.135028310E+02  0.249600475E+01
   H -0.155873504E+02 -0.162324148E+01  0.249270613E+01
   H  0.155873504E+02 -0.162324148E+01  0.249270613E+01
  Xx -0.152601750E-15 -0.103929018E+04  0.249976348E+01
    11
 # iter = 23000  time[fs]=23.00000
   N -0.233401235E+01 -0.315555653E+01  0.249993056E+01
   N  0.233401235E+01 -0.315555653E+01  0.249993056E+01
   C -0.207783633E+01  0.287938916E+01  0.249978990E+01
   C  0.207783633E+01  0.287938916E+01  0.249978990E+01
   C -0.316956791E+01 -0.208647943E+00  0.250012206E+01
   C  0.316956791E+01 -0.208647943E+00  0.250012206E+01
   H -0.869946352E+01  0.136604022E+02  0.249593958E+01
   H  0.869946352E+01  0.136604022E+02  0.249593958E+01
   H -0.157704263E+02 -0.164681224E+01  0.249259389E+01
   H  0.157704263E+02 -0.164681224E+01  0.249259389E+01
  Xx -0.154311961E-15 -0.105093071E+04  0.249976079E+01
    11
 # iter = 23250  time[fs]=23.25000
   N -0.235561343E+01 -0.318398924E+01  0.249993064E+01
   N  0.235561343E+01 -0.318398924E+01  0.249993064E+01
   C -0.209719622E+01  0.290439592E+01  0.249978768E+01
   C  0.209719622E+01  0.290439592E+01  0.249978768E+01
   C -0.319669123E+01 -0.212686678E+00  0.250012897E+01
   C  0.319669123E+01 -0.212686678E+00  0.250012897E+01
   H -0.880113237E+01  0.138181529E+02  0.249587442E+01
   H  0.880113237E+01  0.138181529E+02  0.249587442E+01
   H -0.159537131E+02 -0.167043517E+01  0.249248165E+01
   H  0.159537131E+02 -0.167043517E+01  0.249248165E+01
  Xx -0.156022172E-15 -0.106257125E+04  0.249975811E+01
    11
 # iter = 23500  time[fs]=23.50000
   N -0.237720164E+01 -0.321253604E+01  0.249993114E+01
   N  0.237720164E+01 -0.321253604E+01  0.249993114E+01
   C -0.211658002E+01  0.292945117E+01  0.249978505E+01
   C  0.211658002E+01  0.292945117E+01  0.249978505E+01
   C -0.322386596E+01 -0.216763006E+00  0.250013498E+01
   C  0.322386596E+01 -0.216763006E+00  0.250013498E+01
   H -0.890291590E+01  0.139760795E+02  0.249580925E+01
   H  0.890291590E+01  0.139760795E+02  0.249580925E+01
   H -0.161372064E+02 -0.169410862E+01  0.249236941E+01
   H  0.161372064E+02 -0.169410862E+01  0.249236941E+01
  Xx -0.157732402E-15 -0.107421178E+04  0.249975543E+01
    11
 # iter = 23750  time[fs]=23.75000
   N -0.239880248E+01 -0.324119444E+01  0.249993163E+01
   N  0.239880248E+01 -0.324119444E+01  0.249993163E+01
   C -0.213597204E+01  0.295459539E+01  0.249978273E+01
   C  0.213597204E+01  0.295459539E+01  0.249978273E+01
   C -0.325111142E+01 -0.220862159E+00  0.250014133E+01
   C  0.325111142E+01 -0.220862159E+00  0.250014133E+01
   H -0.900481081E+01  0.141341768E+02  0.249574408E+01
   H  0.900481081E+01  0.141341768E+02  0.249574408E+01
   H -0.163209034E+02 -0.171783081E+01  0.249225717E+01
   H  0.163209034E+02 -0.171783081E+01  0.249225717E+01
  Xx -0.159442655E-15 -0.108585232E+04  0.249975275E+01
    11
 # iter = 24000  time[fs]=24.00000
   N -0.242044662E+01 -0.326993758E+01  0.249993191E+01
   N  0.242044662E+01 -0.326993758E+01  0.249993191E+01
   C -0.215542616E+01  0.297979006E+01  0.249978038E+01
   C  0.215542616E+01  0.297979006E+01  0.249978038E+01
   C -0.327839841E+01 -0.224996781E+00  0.250014810E+01
   C  0.327839841E+01 -0.224996781E+00  0.250014810E+01
   H -0.910681617E+01  0.142924422E+02  0.249567892E+01
   H  0.910681617E+01  0.142924422E+02  0.249567892E+01
   H -0.165047975E+02 -0.174160100E+01  0.249214493E+01
   H  0.165047975E+02 -0.174160100E+01  0.249214493E+01
  Xx -0.161152930E-15 -0.109749285E+04  0.249975007E+01
    11
 # iter = 24250  time[fs]=24.25000
   N -0.244215114E+01 -0.329872334E+01  0.249993227E+01
   N  0.244215114E+01 -0.329872334E+01  0.249993227E+01
   C -0.217488875E+01  0.300507049E+01  0.249977763E+01
   C  0.217488875E+01  0.300507049E+01  0.249977763E+01
   C -0.330572192E+01 -0.229155143E+00  0.250015427E+01
   C  0.330572192E+01 -0.229155143E+00  0.250015427E+01
   H -0.920892865E+01  0.144508723E+02  0.249561375E+01
   H  0.920892865E+01  0.144508723E+02  0.249561375E+01
   H -0.166888859E+02 -0.176541866E+01  0.249203269E+01
   H  0.166888859E+02 -0.176541866E+01  0.249203269E+01
  Xx -0.162863210E-15 -0.110913338E+04  0.249974738E+01
    11
 # iter = 24500  time[fs]=24.50000
   N -0.246392069E+01 -0.332751459E+01  0.249993265E+01
   N  0.246392069E+01 -0.332751459E+01  0.249993265E+01
   C -0.219439464E+01  0.303040186E+01  0.249977526E+01
   C  0.219439464E+01  0.303040186E+01  0.249977526E+01
   C -0.333311326E+01 -0.233359814E+00  0.250016152E+01
   C  0.333311326E+01 -0.233359814E+00  0.250016152E+01
   H -0.931114751E+01  0.146094645E+02  0.249554859E+01
   H  0.931114751E+01  0.146094645E+02  0.249554859E+01
   H -0.168731621E+02 -0.178928357E+01  0.249192045E+01
   H  0.168731621E+02 -0.178928357E+01  0.249192045E+01
  Xx -0.164573502E-15 -0.112077392E+04  0.249974470E+01
    11
 # iter = 24750  time[fs]=24.75000
   N -0.248574105E+01 -0.335630914E+01  0.249993343E+01
   N  0.248574105E+01 -0.335630914E+01  0.249993343E+01
   C -0.221395540E+01  0.305578388E+01  0.249977265E+01
   C  0.221395540E+01  0.305578388E+01  0.249977265E+01
   C -0.336053243E+01 -0.237586349E+00  0.250016799E+01
   C  0.336053243E+01 -0.237586349E+00  0.250016799E+01
   H -0.941347164E+01  0.147682164E+02  0.249548342E+01
   H  0.941347164E+01  0.147682164E+02  0.249548342E+01
   H -0.170576248E+02 -0.181319526E+01  0.249180821E+01
   H  0.170576248E+02 -0.181319526E+01  0.249180821E+01
  Xx -0.166283794E-15 -0.113241445E+04  0.249974202E+01
    11
 # iter = 25000  time[fs]=25.00000
   N -0.250758110E+01 -0.338514322E+01  0.249993415E+01
   N  0.250758110E+01 -0.338514322E+01  0.249993415E+01
   C -0.223352104E+01  0.308123436E+01  0.249976984E+01
   C  0.223352104E+01  0.308123436E+01  0.249976984E+01
   C -0.338800075E+01 -0.241860958E+00  0.250017411E+01
   C  0.338800075E+01 -0.241860958E+00  0.250017411E+01
   H -0.951589828E+01  0.149271248E+02  0.249541826E+01
   H  0.951589828E+01  0.149271248E+02  0.249541826E+01
   H -0.172422690E+02 -0.183715335E+01  0.249169597E+01
   H  0.172422690E+02 -0.183715335E+01  0.249169597E+01
  Xx -0.167994086E-15 -0.114405498E+04  0.249973934E+01
    11
 # iter = 25250  time[fs]=25.25000
   N -0.252941576E+01 -0.341405711E+01  0.249993479E+01
   N  0.252941576E+01 -0.341405711E+01  0.249993479E+01
   C -0.225315016E+01  0.310672344E+01  0.249976716E+01
   C  0.225315016E+01  0.310672344E+01  0.249976716E+01
   C -0.341552917E+01 -0.246168336E+00  0.250018151E+01
   C  0.341552917E+01 -0.246168336E+00  0.250018151E+01
   H -0.961842634E+01  0.150861871E+02  0.249535309E+01
   H  0.961842634E+01  0.150861871E+02  0.249535309E+01
   H -0.174270908E+02 -0.186115692E+01  0.249158374E+01
   H  0.174270908E+02 -0.186115692E+01  0.249158374E+01
  Xx -0.169704378E-15 -0.115569552E+04  0.249973665E+01
    11
 # iter = 25500  time[fs]=25.50000
   N -0.255122774E+01 -0.344307240E+01  0.249993544E+01
   N  0.255122774E+01 -0.344307240E+01  0.249993544E+01
   C -0.227280505E+01  0.313227573E+01  0.249976430E+01
   C  0.227280505E+01  0.313227573E+01  0.249976430E+01
   C -0.344310396E+01 -0.250505920E+00  0.250018813E+01
   C  0.344310396E+01 -0.250505920E+00  0.250018813E+01
   H -0.972105251E+01  0.152453996E+02  0.249528792E+01
   H  0.972105251E+01  0.152453996E+02  0.249528792E+01
   H -0.176120869E+02 -0.188520481E+01  0.249147150E+01
   H  0.176120869E+02 -0.188520481E+01  0.249147150E+01
  Xx -0.171414670E-15 -0.116733605E+04  0.249973397E+01
    11
 # iter = 25750  time[fs]=25.75000
   N -0.257299377E+01 -0.347220503E+01  0.249993600E+01
   N  0.257299377E+01 -0.347220503E+01  0.249993600E+01
   C -0.229246544E+01  0.315789323E+01  0.249976163E+01
   C  0.229246544E+01  0.315789323E+01  0.249976163E+01
   C -0.347074905E+01 -0.254881768E+00  0.250019482E+01
   C  0.347074905E+01 -0.254881768E+00  0.250019482E+01
   H -0.982377471E+01  0.154047583E+02  0.249522276E+01
   H  0.982377471E+01  0.154047583E+02  0.249522276E+01
   H -0.177972518E+02 -0.190929554E+01  0.249135926E+01
   H  0.177972518E+02 -0.190929554E+01  0.249135926E+01
  Xx -0.173124953E-15 -0.117897659E+04  0.249973129E+01
    11
 # iter = 26000  time[fs]=26.00000
   N -0.259471013E+01 -0.350144168E+01  0.249993672E+01
   N  0.259471013E+01 -0.350144168E+01  0.249993672E+01
   C -0.231217568E+01  0.318356045E+01  0.249975927E+01
   C  0.231217568E+01  0.318356045E+01  0.249975927E+01
   C -0.349844696E+01 -0.259276209E+00  0.250020199E+01
   C  0.349844696E+01 -0.259276209E+00  0.250020199E+01
   H -0.992659017E+01  0.155642595E+02  0.249515759E+01
   H  0.992659017E+01  0.155642595E+02  0.249515759E+01
   H -0.179825855E+02 -0.193342758E+01  0.249124702E+01
   H  0.179825855E+02 -0.193342758E+01  0.249124702E+01
  Xx -0.174835220E-15 -0.119061712E+04  0.249972861E+01
    11
 # iter = 26250  time[fs]=26.25000
   N -0.261639584E+01 -0.353073824E+01  0.249993735E+01
   N  0.261639584E+01 -0.353073824E+01  0.249993735E+01
   C -0.233188027E+01  0.320931082E+01  0.249975680E+01
   C  0.233188027E+01  0.320931082E+01  0.249975680E+01
   C -0.352618257E+01 -0.263680103E+00  0.250020800E+01
   C  0.352618257E+01 -0.263680103E+00  0.250020800E+01
   H -0.100294960E+02  0.157239000E+02  0.249509243E+01
   H  0.100294960E+02  0.157239000E+02  0.249509243E+01
   H -0.181680847E+02 -0.195759962E+01  0.249113478E+01
   H  0.181680847E+02 -0.195759962E+01  0.249113478E+01
  Xx -0.176545467E-15 -0.120225765E+04  0.249972592E+01
    11
 # iter = 26500  time[fs]=26.50000
   N -0.263807410E+01 -0.356004792E+01  0.249993774E+01
   N  0.263807410E+01 -0.356004792E+01  0.249993774E+01
   C -0.235161391E+01  0.323509687E+01  0.249975433E+01
   C  0.235161391E+01  0.323509687E+01  0.249975433E+01
   C -0.355397645E+01 -0.268119700E+00  0.250021521E+01
   C  0.355397645E+01 -0.268119700E+00  0.250021521E+01
   H -0.101324907E+02  0.158836777E+02  0.249502726E+01
   H  0.101324907E+02  0.158836777E+02  0.249502726E+01
   H -0.183537440E+02 -0.198181100E+01  0.249102254E+01
   H  0.183537440E+02 -0.198181100E+01  0.249102254E+01
  Xx -0.178255710E-15 -0.121389819E+04  0.249972324E+01
    11
 # iter = 26750  time[fs]=26.75000
   N -0.265977525E+01 -0.358935746E+01  0.249993808E+01
   N  0.265977525E+01 -0.358935746E+01  0.249993808E+01
   C -0.237137734E+01  0.326096150E+01  0.249975164E+01
   C  0.237137734E+01  0.326096150E+01  0.249975164E+01
   C -0.358179744E+01 -0.272561673E+00  0.250022229E+01
   C  0.358179744E+01 -0.272561673E+00  0.250022229E+01
   H -0.102355742E+02  0.160435894E+02  0.249496210E+01
   H  0.102355742E+02  0.160435894E+02  0.249496210E+01
   H -0.185395626E+02 -0.200606105E+01  0.249091030E+01
   H  0.185395626E+02 -0.200606105E+01  0.249091030E+01
  Xx -0.179965954E-15 -0.122553872E+04  0.249972056E+01
    11
 # iter = 27000  time[fs]=27.00000
   N -0.268153005E+01 -0.361868554E+01  0.249993903E+01
   N  0.268153005E+01 -0.361868554E+01  0.249993903E+01
   C -0.239113838E+01  0.328687860E+01  0.249974868E+01
   C  0.239113838E+01  0.328687860E+01  0.249974868E+01
   C -0.360966836E+01 -0.277039917E+00  0.250022851E+01
   C  0.360966836E+01 -0.277039917E+00  0.250022851E+01
   H -0.103387447E+02  0.162036342E+02  0.249489693E+01
   H  0.103387447E+02  0.162036342E+02  0.249489693E+01
   H -0.187255341E+02 -0.203034961E+01  0.249079806E+01
   H  0.187255341E+02 -0.203034961E+01  0.249079806E+01
  Xx -0.181676198E-15 -0.123717925E+04  0.249971788E+01
    11
 # iter = 27250  time[fs]=27.25000
   N -0.270334079E+01 -0.364806253E+01  0.249994012E+01
   N  0.270334079E+01 -0.364806253E+01  0.249994012E+01
   C -0.241095768E+01  0.331283032E+01  0.249974665E+01
   C  0.241095768E+01  0.331283032E+01  0.249974665E+01
   C -0.363760029E+01 -0.281538655E+00  0.250023561E+01
   C  0.363760029E+01 -0.281538655E+00  0.250023561E+01
   H -0.104419997E+02  0.163638122E+02  0.249483177E+01
   H  0.104419997E+02  0.163638122E+02  0.249483177E+01
   H -0.189116566E+02 -0.205467671E+01  0.249068582E+01
   H  0.189116566E+02 -0.205467671E+01  0.249068582E+01
  Xx -0.183386449E-15 -0.124881979E+04  0.249971520E+01
    11
 # iter = 27500  time[fs]=27.50000
   N -0.272519498E+01 -0.367752929E+01  0.249994073E+01
   N  0.272519498E+01 -0.367752929E+01  0.249994073E+01
   C -0.243078633E+01  0.333886148E+01  0.249974462E+01
   C  0.243078633E+01  0.333886148E+01  0.249974462E+01
   C -0.366556809E+01 -0.286059354E+00  0.250024212E+01
   C  0.366556809E+01 -0.286059354E+00  0.250024212E+01
   H -0.105453389E+02  0.165241174E+02  0.249476660E+01
   H  0.105453389E+02  0.165241174E+02  0.249476660E+01
   H -0.190979299E+02 -0.207904184E+01  0.249057358E+01
   H  0.190979299E+02 -0.207904184E+01  0.249057358E+01
  Xx -0.185096716E-15 -0.126046032E+04  0.249971251E+01
    11
 # iter = 27750  time[fs]=27.75000
   N -0.274707796E+01 -0.370709942E+01  0.249994119E+01
   N  0.274707796E+01 -0.370709942E+01  0.249994119E+01
   C -0.245063826E+01  0.336492449E+01  0.249974239E+01
   C  0.245063826E+01  0.336492449E+01  0.249974239E+01
   C -0.369359624E+01 -0.290615151E+00  0.250024841E+01
   C  0.369359624E+01 -0.290615151E+00  0.250024841E+01
   H -0.106487616E+02  0.166845470E+02  0.249470143E+01
   H  0.106487616E+02  0.166845470E+02  0.249470143E+01
   H -0.192843479E+02 -0.210344463E+01  0.249046134E+01
   H  0.192843479E+02 -0.210344463E+01  0.249046134E+01
  Xx -0.186806984E-15 -0.127210085E+04  0.249970983E+01
    11
 # iter = 28000  time[fs]=28.00000
   N -0.276896333E+01 -0.373677139E+01  0.249994203E+01
   N  0.276896333E+01 -0.373677139E+01  0.249994203E+01
   C -0.247054528E+01  0.339104757E+01  0.249974010E+01
   C  0.247054528E+01  0.339104757E+01  0.249974010E+01
   C -0.372167356E+01 -0.295190174E+00  0.250025544E+01
   C  0.372167356E+01 -0.295190174E+00  0.250025544E+01
   H -0.107522645E+02  0.168451010E+02  0.249463627E+01
   H  0.107522645E+02  0.168451010E+02  0.249463627E+01
   H -0.194709079E+02 -0.212788425E+01  0.249034911E+01
   H  0.194709079E+02 -0.212788425E+01  0.249034911E+01
  Xx -0.188517249E-15 -0.128374139E+04  0.249970715E+01
    11
 # iter = 28250  time[fs]=28.25000
   N -0.279082935E+01 -0.376651755E+01  0.249994301E+01
   N  0.279082935E+01 -0.376651755E+01  0.249994301E+01
   C -0.249045812E+01  0.341723453E+01  0.249973747E+01
   C  0.249045812E+01  0.341723453E+01  0.249973747E+01
   C -0.374978549E+01 -0.299778985E+00  0.250026159E+01
   C  0.374978549E+01 -0.299778985E+00  0.250026159E+01
   H -0.108558473E+02  0.170057776E+02  0.249457110E+01
   H  0.108558473E+02  0.170057776E+02  0.249457110E+01
   H -0.196576101E+02 -0.215235989E+01  0.249023687E+01
   H  0.196576101E+02 -0.215235989E+01  0.249023687E+01
  Xx -0.190227504E-15 -0.129538192E+04  0.249970447E+01
    11
 # iter = 28500  time[fs]=28.50000
   N -0.281264809E+01 -0.379629001E+01  0.249994382E+01
   N  0.281264809E+01 -0.379629001E+01  0.249994382E+01
   C -0.251041693E+01  0.344344630E+01  0.249973549E+01
   C  0.251041693E+01  0.344344630E+01  0.249973549E+01
   C -0.377796052E+01 -0.304396346E+00  0.250026846E+01
   C  0.377796052E+01 -0.304396346E+00  0.250026846E+01
   H -0.109595095E+02  0.171665703E+02  0.249450594E+01
   H  0.109595095E+02  0.171665703E+02  0.249450594E+01
   H -0.198444502E+02 -0.217687084E+01  0.249012463E+01
   H  0.198444502E+02 -0.217687084E+01  0.249012463E+01
  Xx -0.191937739E-15 -0.130702246E+04  0.249970178E+01
    11
 # iter = 28750  time[fs]=28.75000
   N -0.283440158E+01 -0.382606450E+01  0.249994482E+01
   N  0.283440158E+01 -0.382606450E+01  0.249994482E+01
   C -0.253040236E+01  0.346974770E+01  0.249973309E+01
   C  0.253040236E+01  0.346974770E+01  0.249973309E+01
   C -0.380617205E+01 -0.309011179E+00  0.250027525E+01
   C  0.380617205E+01 -0.309011179E+00  0.250027525E+01
   H -0.110632476E+02  0.173274785E+02  0.249444077E+01
   H  0.110632476E+02  0.173274785E+02  0.249444077E+01
   H -0.200314237E+02 -0.220141557E+01  0.249001239E+01
   H  0.200314237E+02 -0.220141557E+01  0.249001239E+01
  Xx -0.193647963E-15 -0.131866299E+04  0.249969910E+01
    11
 # iter = 29000  time[fs]=29.00000
   N -0.285610577E+01 -0.385584223E+01  0.249994585E+01
   N  0.285610577E+01 -0.385584223E+01  0.249994585E+01
   C -0.255039263E+01  0.349608978E+01  0.249973050E+01
   C  0.255039263E+01  0.349608978E+01  0.249973050E+01
   C -0.383441262E+01 -0.313653038E+00  0.250028141E+01
   C  0.383441262E+01 -0.313653038E+00  0.250028141E+01
   H -0.111670612E+02  0.174885021E+02  0.249437561E+01
   H  0.111670612E+02  0.174885021E+02  0.249437561E+01
   H -0.202185303E+02 -0.222599348E+01  0.248990015E+01
   H  0.202185303E+02 -0.222599348E+01  0.248990015E+01
  Xx -0.195358178E-15 -0.133030352E+04  0.249969642E+01
    11
 # iter = 29250  time[fs]=29.25000
   N -0.287779577E+01 -0.388563629E+01  0.249994718E+01
   N  0.287779577E+01 -0.388563629E+01  0.249994718E+01
   C -0.257042551E+01  0.352247576E+01  0.249972853E+01
   C  0.257042551E+01  0.352247576E+01  0.249972853E+01
   C -0.386270610E+01 -0.318308616E+00  0.250028837E+01
   C  0.386270610E+01 -0.318308616E+00  0.250028837E+01
   H -0.112709501E+02  0.176496410E+02  0.249431044E+01
   H  0.112709501E+02  0.176496410E+02  0.249431044E+01
   H -0.204057702E+02 -0.225060407E+01  0.248978791E+01
   H  0.204057702E+02 -0.225060407E+01  0.248978791E+01
  Xx -0.197068394E-15 -0.134194406E+04  0.249969374E+01
    11
 # iter = 29500  time[fs]=29.50000
   N -0.289949455E+01 -0.391548814E+01  0.249994848E+01
   N  0.289949455E+01 -0.391548814E+01  0.249994848E+01
   C -0.259045736E+01  0.354893529E+01  0.249972577E+01
   C  0.259045736E+01  0.354893529E+01  0.249972577E+01
   C -0.389102858E+01 -0.322965755E+00  0.250029485E+01
   C  0.389102858E+01 -0.322965755E+00  0.250029485E+01
   H -0.113749110E+02  0.178108890E+02  0.249424527E+01
   H  0.113749110E+02  0.178108890E+02  0.249424527E+01
   H -0.205931397E+02 -0.227524700E+01  0.248967567E+01
   H  0.205931397E+02 -0.227524700E+01  0.248967567E+01
  Xx -0.198778609E-15 -0.135358459E+04  0.249969106E+01
    11
 # iter = 29750  time[fs]=29.75000
   N -0.292121952E+01 -0.394544432E+01  0.249994992E+01
   N  0.292121952E+01 -0.394544432E+01  0.249994992E+01
   C -0.261050367E+01  0.357540459E+01  0.249972359E+01
   C  0.261050367E+01  0.357540459E+01  0.249972359E+01
   C -0.391939347E+01 -0.327651503E+00  0.250030105E+01
   C  0.391939347E+01 -0.327651503E+00  0.250030105E+01
   H -0.114789429E+02  0.179722435E+02  0.249418011E+01
   H  0.114789429E+02  0.179722435E+02  0.249418011E+01
   H -0.207806335E+02 -0.229992193E+01  0.248956343E+01
   H  0.207806335E+02 -0.229992193E+01  0.248956343E+01
  Xx -0.200488824E-15 -0.136522512E+04  0.249968837E+01
    11
 # iter = 30000  time[fs]=30.00000
   N -0.294299840E+01 -0.397550169E+01  0.249995116E+01
   N  0.294299840E+01 -0.397550169E+01  0.249995116E+01
   C -0.263058374E+01  0.360194231E+01  0.249972079E+01
   C  0.263058374E+01  0.360194231E+01  0.249972079E+01
   C -0.394781711E+01 -0.332334349E+00  0.250030806E+01
   C  0.394781711E+01 -0.332334349E+00  0.250030806E+01
   H -0.115830459E+02  0.181337047E+02  0.249411494E+01
   H  0.115830459E+02  0.181337047E+02  0.249411494E+01
   H -0.209682518E+02 -0.232462803E+01  0.248945119E+01
   H  0.209682518E+02 -0.232462803E+01  0.248945119E+01
  Xx -0.202199039E-15 -0.137686566E+04  0.249968569E+01
    11
 # iter = 30250  time[fs]=30.25000
   N -0.296484536E+01 -0.400563042E+01  0.249995205E+01
   N  0.296484536E+01 -0.400563042E+01  0.249995205E+01
   C -0.265067087E+01  0.362852504E+01  0.249971795E+01
   C  0.265067087E+01  0.362852504E+01  0.249971795E+01
   C -0.397626959E+01 -0.337036498E+00  0.250031425E+01
   C  0.397626959E+01 -0.337036498E+00  0.250031425E+01
   H -0.116872180E+02  0.182952724E+02  0.249404978E+01
   H  0.116872180E+02  0.182952724E+02  0.249404978E+01
   H -0.211559943E+02 -0.234936489E+01  0.248933895E+01
   H  0.211559943E+02 -0.234936489E+01  0.248933895E+01
  Xx -0.203909254E-15 -0.138850619E+04  0.249968301E+01
    11
 # iter = 30500  time[fs]=30.50000
   N -0.298674337E+01 -0.403579466E+01  0.249995327E+01
   N  0.298674337E+01 -0.403579466E+01  0.249995327E+01
   C -0.267079701E+01  0.365513469E+01  0.249971617E+01
   C  0.267079701E+01  0.365513469E+01  0.249971617E+01
   C -0.400477561E+01 -0.341765108E+00  0.250032103E+01
   C  0.400477561E+01 -0.341765108E+00  0.250032103E+01
   H -0.117914567E+02  0.184569464E+02  0.249398461E+01
   H  0.117914567E+02  0.184569464E+02  0.249398461E+01
   H -0.213438568E+02 -0.237413180E+01  0.248922671E+01
   H  0.213438568E+02 -0.237413180E+01  0.248922671E+01
  Xx -0.205619469E-15 -0.140014673E+04  0.249968033E+01
    11
 # iter = 30750  time[fs]=30.75000
   N -0.300865750E+01 -0.406596483E+01  0.249995454E+01
   N  0.300865750E+01 -0.406596483E+01  0.249995454E+01
   C -0.269094216E+01  0.368183129E+01  0.249971382E+01
   C  0.269094216E+01  0.368183129E+01  0.249971382E+01
   C -0.403333400E+01 -0.346489864E+00  0.250032785E+01
   C  0.403333400E+01 -0.346489864E+00  0.250032785E+01
   H -0.118957620E+02  0.186187202E+02  0.249391945E+01
   H  0.118957620E+02  0.186187202E+02  0.249391945E+01
   H -0.215318348E+02 -0.239892840E+01  0.248911448E+01
   H  0.215318348E+02 -0.239892840E+01  0.248911448E+01
  Xx -0.207329684E-15 -0.141178726E+04  0.249967764E+01
    11
 # iter = 31000  time[fs]=31.00000
   N -0.303055931E+01 -0.409613171E+01  0.249995590E+01
   N  0.303055931E+01 -0.409613171E+01  0.249995590E+01
   C -0.271110969E+01  0.370853805E+01  0.249971196E+01
   C  0.271110969E+01  0.370853805E+01  0.249971196E+01
   C -0.406190561E+01 -0.351236517E+00  0.250033393E+01
   C  0.406190561E+01 -0.351236517E+00  0.250033393E+01
   H -0.120001337E+02  0.187805918E+02  0.249385428E+01
   H  0.120001337E+02  0.187805918E+02  0.249385428E+01
   H -0.217199282E+02 -0.242375446E+01  0.248900224E+01
   H  0.217199282E+02 -0.242375446E+01  0.248900224E+01
  Xx -0.209039899E-15 -0.142342779E+04  0.249967496E+01
    11
 # iter = 31250  time[fs]=31.25000
   N -0.305242510E+01 -0.412629794E+01  0.249995717E+01
   N  0.305242510E+01 -0.412629794E+01  0.249995717E+01
   C -0.273131402E+01  0.373530995E+01  0.249970978E+01
   C  0.273131402E+01  0.373530995E+01  0.249970978E+01
   C -0.409052627E+01 -0.355990177E+00  0.250034096E+01
   C  0.409052627E+01 -0.355990177E+00  0.250034096E+01
   H -0.121045697E+02  0.189425611E+02  0.249378911E+01
   H  0.121045697E+02  0.189425611E+02  0.249378911E+01
   H -0.219081370E+02 -0.244860941E+01  0.248889000E+01
   H  0.219081370E+02 -0.244860941E+01  0.248889000E+01
  Xx -0.210750114E-15 -0.143506833E+04  0.249967228E+01
    11
 # iter = 31500  time[fs]=31.50000
   N -0.307423403E+01 -0.415649963E+01  0.249995831E+01
   N  0.307423403E+01 -0.415649963E+01  0.249995831E+01
   C -0.275152989E+01  0.376214249E+01  0.249970675E+01
   C  0.275152989E+01  0.376214249E+01  0.249970675E+01
   C -0.411918341E+01 -0.360753718E+00  0.250034738E+01
   C  0.411918341E+01 -0.360753718E+00  0.250034738E+01
   H -0.122090684E+02  0.191046280E+02  0.249372395E+01
   H  0.122090684E+02  0.191046280E+02  0.249372395E+01
   H -0.220964613E+02 -0.247349250E+01  0.248877776E+01
   H  0.220964613E+02 -0.247349250E+01  0.248877776E+01
  Xx -0.212460326E-15 -0.144670886E+04  0.249966960E+01
    11
 # iter = 31750  time[fs]=31.75000
   N -0.309598887E+01 -0.418678978E+01  0.249995967E+01
   N  0.309598887E+01 -0.418678978E+01  0.249995967E+01
   C -0.277176199E+01  0.378897688E+01  0.249970465E+01
   C  0.277176199E+01  0.378897688E+01  0.249970465E+01
   C -0.414785716E+01 -0.365527771E+00  0.250035398E+01
   C  0.414785716E+01 -0.365527771E+00  0.250035398E+01
   H -0.123136293E+02  0.192667923E+02  0.249365878E+01
   H  0.123136293E+02  0.192667923E+02  0.249365878E+01
   H -0.222848959E+02 -0.249840310E+01  0.248866552E+01
   H  0.222848959E+02 -0.249840310E+01  0.248866552E+01
  Xx -0.214170529E-15 -0.145834939E+04  0.249966691E+01
    11
 # iter = 32000  time[fs]=32.00000
   N -0.311771290E+01 -0.421717614E+01  0.249996117E+01
   N  0.311771290E+01 -0.421717614E+01  0.249996117E+01
   C -0.279201541E+01  0.381588969E+01  0.249970215E+01
   C  0.279201541E+01  0.381588969E+01  0.249970215E+01
   C -0.417659511E+01 -0.370310324E+00  0.250036109E+01
   C  0.417659511E+01 -0.370310324E+00  0.250036109E+01
   H -0.124182524E+02  0.194290477E+02  0.249359362E+01
   H  0.124182524E+02  0.194290477E+02  0.249359362E+01
   H -0.224734371E+02 -0.252334040E+01  0.248855328E+01
   H  0.224734371E+02 -0.252334040E+01  0.248855328E+01
  Xx -0.215880732E-15 -0.146998993E+04  0.249966423E+01
    11
 # iter = 32250  time[fs]=32.25000
   N -0.313942872E+01 -0.424763081E+01  0.249996275E+01
   N  0.313942872E+01 -0.424763081E+01  0.249996275E+01
   C -0.281227658E+01  0.384281936E+01  0.249969965E+01
   C  0.281227658E+01  0.384281936E+01  0.249969965E+01
   C -0.420535865E+01 -0.375103786E+00  0.250036735E+01
   C  0.420535865E+01 -0.375103786E+00  0.250036735E+01
   H -0.125229357E+02  0.195913919E+02  0.249352845E+01
   H  0.125229357E+02  0.195913919E+02  0.249352845E+01
   H -0.226620849E+02 -0.254830421E+01  0.248844104E+01
   H  0.226620849E+02 -0.254830421E+01  0.248844104E+01
  Xx -0.217590935E-15 -0.148163046E+04  0.249966155E+01
    11
 # iter = 32500  time[fs]=32.50000
   N -0.316116341E+01 -0.427812537E+01  0.249996438E+01
   N  0.316116341E+01 -0.427812537E+01  0.249996438E+01
   C -0.283255275E+01  0.386977283E+01  0.249969742E+01
   C  0.283255275E+01  0.386977283E+01  0.249969742E+01
   C -0.423415041E+01 -0.379908289E+00  0.250037408E+01
   C  0.423415041E+01 -0.379908289E+00  0.250037408E+01
   H -0.126276768E+02  0.197538249E+02  0.249346329E+01
   H  0.126276768E+02  0.197538249E+02  0.249346329E+01
   H -0.228508392E+02 -0.257329410E+01  0.248832880E+01
   H  0.228508392E+02 -0.257329410E+01  0.248832880E+01
  Xx -0.219301138E-15 -0.149327100E+04  0.249965887E+01
    11
 # iter = 32750  time[fs]=32.75000
   N -0.318295252E+01 -0.430863420E+01  0.249996560E+01
   N  0.318295252E+01 -0.430863420E+01  0.249996560E+01
   C -0.285284719E+01  0.389680687E+01  0.249969471E+01
   C  0.285284719E+01  0.389680687E+01  0.249969471E+01
   C -0.426300046E+01 -0.384726217E+00  0.250038063E+01
   C  0.426300046E+01 -0.384726217E+00  0.250038063E+01
   H -0.127324756E+02  0.199163467E+02  0.249339812E+01
   H  0.127324756E+02  0.199163467E+02  0.249339812E+01
   H -0.230397002E+02 -0.259830960E+01  0.248821656E+01
   H  0.230397002E+02 -0.259830960E+01  0.248821656E+01
  Xx -0.221011341E-15 -0.150491153E+04  0.249965619E+01
    11
 # iter = 33000  time[fs]=33.00000
   N -0.320481086E+01 -0.433913715E+01  0.249996675E+01
   N  0.320481086E+01 -0.433913715E+01  0.249996675E+01
   C -0.287315199E+01  0.392383381E+01  0.249969296E+01
   C  0.287315199E+01  0.392383381E+01  0.249969296E+01
   C -0.429186242E+01 -0.389545009E+00  0.250038690E+01
   C  0.429186242E+01 -0.389545009E+00  0.250038690E+01
   H -0.128373321E+02  0.200789574E+02  0.249333296E+01
   H  0.128373321E+02  0.200789574E+02  0.249333296E+01
   H -0.232286636E+02 -0.262335064E+01  0.248810432E+01
   H  0.232286636E+02 -0.262335064E+01  0.248810432E+01
  Xx -0.222721544E-15 -0.151655206E+04  0.249965350E+01
    11
 # iter = 33250  time[fs]=33.25000
   N -0.322671816E+01 -0.436963627E+01  0.249996844E+01
   N  0.322671816E+01 -0.436963627E+01  0.249996844E+01
   C -0.289347458E+01  0.395093434E+01  0.249969079E+01
   C  0.289347458E+01  0.395093434E+01  0.249969079E+01
   C -0.432076030E+01 -0.394392581E+00  0.250039407E+01
   C  0.432076030E+01 -0.394392581E+00  0.250039407E+01
   H -0.129422464E+02  0.202416568E+02  0.249326779E+01
   H  0.129422464E+02  0.202416568E+02  0.249326779E+01
   H -0.234177246E+02 -0.264841714E+01  0.248799208E+01
   H  0.234177246E+02 -0.264841714E+01  0.248799208E+01
  Xx -0.224431747E-15 -0.152819260E+04  0.249965082E+01
    11
 # iter = 33500  time[fs]=33.50000
   N -0.324864716E+01 -0.440016438E+01  0.249997021E+01
   N  0.324864716E+01 -0.440016438E+01  0.249997021E+01
   C -0.291381608E+01  0.397807973E+01  0.249968850E+01
   C  0.291381608E+01  0.397807973E+01  0.249968850E+01
   C -0.434970635E+01 -0.399241550E+00  0.250040022E+01
   C  0.434970635E+01 -0.399241550E+00  0.250040022E+01
   H -0.130472173E+02  0.204044435E+02  0.249320262E+01
   H  0.130472173E+02  0.204044435E+02  0.249320262E+01
   H -0.236068834E+02 -0.267350831E+01  0.248787985E+01
   H  0.236068834E+02 -0.267350831E+01  0.248787985E+01
  Xx -0.226141949E-15 -0.153983313E+04  0.249964814E+01
    11
 # iter = 33750  time[fs]=33.75000
   N -0.327057710E+01 -0.443076869E+01  0.249997144E+01
   N  0.327057710E+01 -0.443076869E+01  0.249997144E+01
   C -0.293417210E+01  0.400523655E+01  0.249968678E+01
   C  0.293417210E+01  0.400523655E+01  0.249968678E+01
   C -0.437866383E+01 -0.404098717E+00  0.250040671E+01
   C  0.437866383E+01 -0.404098717E+00  0.250040671E+01
   H -0.131522417E+02  0.205673108E+02  0.249313746E+01
   H  0.131522417E+02  0.205673108E+02  0.249313746E+01
   H -0.237961399E+02 -0.269862389E+01  0.248776761E+01
   H  0.237961399E+02 -0.269862389E+01  0.248776761E+01
  Xx -0.227852152E-15 -0.155147366E+04  0.249964546E+01
    11
 # iter = 34000  time[fs]=34.00000
   N -0.329248484E+01 -0.446147111E+01  0.249997251E+01
   N  0.329248484E+01 -0.446147111E+01  0.249997251E+01
   C -0.295455592E+01  0.403247258E+01  0.249968476E+01
   C  0.295455592E+01  0.403247258E+01  0.249968476E+01
   C -0.440766703E+01 -0.408989589E+00  0.250041364E+01
   C  0.440766703E+01 -0.408989589E+00  0.250041364E+01
   H -0.132573194E+02  0.207302581E+02  0.249307229E+01
   H  0.132573194E+02  0.207302581E+02  0.249307229E+01
   H -0.239854941E+02 -0.272376390E+01  0.248765537E+01
   H  0.239854941E+02 -0.272376390E+01  0.248765537E+01
  Xx -0.229562355E-15 -0.156311420E+04  0.249964277E+01
    11
 # iter = 34250  time[fs]=34.25000
   N -0.331434200E+01 -0.449225713E+01  0.249997404E+01
   N  0.331434200E+01 -0.449225713E+01  0.249997404E+01
   C -0.297495394E+01  0.405971576E+01  0.249968278E+01
   C  0.297495394E+01  0.405971576E+01  0.249968278E+01
   C -0.443671175E+01 -0.413878307E+00  0.250041979E+01
   C  0.443671175E+01 -0.413878307E+00  0.250041979E+01
   H -0.133624504E+02  0.208932853E+02  0.249300713E+01
   H  0.133624504E+02  0.208932853E+02  0.249300713E+01
   H -0.241749460E+02 -0.274892801E+01  0.248754313E+01
   H  0.241749460E+02 -0.274892801E+01  0.248754313E+01
  Xx -0.231272558E-15 -0.157475473E+04  0.249964009E+01
    11
 # iter = 34500  time[fs]=34.50000
   N -0.333612904E+01 -0.452309297E+01  0.249997568E+01
   N  0.333612904E+01 -0.452309297E+01  0.249997568E+01
   C -0.299536648E+01  0.408699202E+01  0.249968090E+01
   C  0.299536648E+01  0.408699202E+01  0.249968090E+01
   C -0.446577326E+01 -0.418800424E+00  0.250042660E+01
   C  0.446577326E+01 -0.418800424E+00  0.250042660E+01
   H -0.134676346E+02  0.210563924E+02  0.249294196E+01
   H  0.134676346E+02  0.210563924E+02  0.249294196E+01
   H -0.243644934E+02 -0.277411545E+01  0.248743089E+01
   H  0.243644934E+02 -0.277411545E+01  0.248743089E+01
  Xx -0.232982761E-15 -0.158639527E+04  0.249963741E+01
    11
 # iter = 34750  time[fs]=34.75000
   N -0.335785448E+01 -0.455393810E+01  0.249997718E+01
   N  0.335785448E+01 -0.455393810E+01  0.249997718E+01
   C -0.301580778E+01  0.411433311E+01  0.249967881E+01
   C  0.301580778E+01  0.411433311E+01  0.249967881E+01
   C -0.449488539E+01 -0.423742082E+00  0.250043287E+01
   C  0.449488539E+01 -0.423742082E+00  0.250043287E+01
   H -0.135728722E+02  0.212195795E+02  0.249287680E+01
   H  0.135728722E+02  0.212195795E+02  0.249287680E+01
   H -0.245541301E+02 -0.279932622E+01  0.248731865E+01
   H  0.245541301E+02 -0.279932622E+01  0.248731865E+01
  Xx -0.234692964E-15 -0.159803580E+04  0.249963473E+01
    11
 # iter = 35000  time[fs]=35.00000
   N -0.337955953E+01 -0.458476700E+01  0.249997857E+01
   N  0.337955953E+01 -0.458476700E+01  0.249997857E+01
   C -0.303625314E+01  0.414166657E+01  0.249967687E+01
   C  0.303625314E+01  0.414166657E+01  0.249967687E+01
   C -0.452402699E+01 -0.428688185E+00  0.250043911E+01
   C  0.452402699E+01 -0.428688185E+00  0.250043911E+01
   H -0.136781622E+02  0.213828465E+02  0.249281163E+01
   H  0.136781622E+02  0.213828465E+02  0.249281163E+01
   H -0.247438555E+02 -0.282455990E+01  0.248720641E+01
   H  0.247438555E+02 -0.282455990E+01  0.248720641E+01
  Xx -0.236403167E-15 -0.160967633E+04  0.249963204E+01
    11
 # iter = 35250  time[fs]=35.25000
   N -0.340127755E+01 -0.461558403E+01  0.249997994E+01
   N  0.340127755E+01 -0.461558403E+01  0.249997994E+01
   C -0.305671118E+01  0.416906651E+01  0.249967491E+01
   C  0.305671118E+01  0.416906651E+01  0.249967491E+01
   C -0.455318439E+01 -0.433672950E+00  0.250044606E+01
   C  0.455318439E+01 -0.433672950E+00  0.250044606E+01
   H -0.137835014E+02  0.215461934E+02  0.249274646E+01
   H  0.137835014E+02  0.215461934E+02  0.249274646E+01
   H -0.249336698E+02 -0.284981581E+01  0.248709417E+01
   H  0.249336698E+02 -0.284981581E+01  0.248709417E+01
  Xx -0.238113370E-15 -0.162131687E+04  0.249962936E+01
    11
 # iter = 35500  time[fs]=35.50000
   N -0.342302310E+01 -0.464642651E+01  0.249998148E+01
   N  0.342302310E+01 -0.464642651E+01  0.249998148E+01
   C -0.307719068E+01  0.419650270E+01  0.249967320E+01
   C  0.307719068E+01  0.419650270E+01  0.249967320E+01
   C -0.458238976E+01 -0.438652809E+00  0.250045171E+01
   C  0.458238976E+01 -0.438652809E+00  0.250045171E+01
   H -0.138888895E+02  0.217096165E+02  0.249268130E+01
   H  0.138888895E+02  0.217096165E+02  0.249268130E+01
   H -0.251235729E+02 -0.287509392E+01  0.248698193E+01
   H  0.251235729E+02 -0.287509392E+01  0.248698193E+01
  Xx -0.239823573E-15 -0.163295740E+04  0.249962668E+01
    11
 # iter = 35750  time[fs]=35.75000
   N -0.344481556E+01 -0.467733665E+01  0.249998327E+01
   N  0.344481556E+01 -0.467733665E+01  0.249998327E+01
   C -0.309766568E+01  0.422396032E+01  0.249967157E+01
   C  0.309766568E+01  0.422396032E+01  0.249967157E+01
   C -0.461161810E+01 -0.443659658E+00  0.250045807E+01
   C  0.461161810E+01 -0.443659658E+00  0.250045807E+01
   H -0.139943264E+02  0.218731106E+02  0.249261613E+01
   H  0.139943264E+02  0.218731106E+02  0.249261613E+01
   H -0.253135648E+02 -0.290039413E+01  0.248686969E+01
   H  0.253135648E+02 -0.290039413E+01  0.248686969E+01
  Xx -0.241533776E-15 -0.164459793E+04  0.249962400E+01
    11
 # iter = 36000  time[fs]=36.00000
   N -0.346666761E+01 -0.470833160E+01  0.249998499E+01
   N  0.346666761E+01 -0.470833160E+01  0.249998499E+01
   C -0.311816505E+01  0.425149472E+01  0.249966985E+01
   C  0.311816505E+01  0.425149472E+01  0.249966985E+01
   C -0.464086907E+01 -0.448689287E+00  0.250046429E+01
   C  0.464086907E+01 -0.448689287E+00  0.250046429E+01
   H -0.140998121E+02  0.220366758E+02  0.249255097E+01
   H  0.140998121E+02  0.220366758E+02  0.249255097E+01
   H -0.255036455E+02 -0.292571575E+01  0.248675745E+01
   H  0.255036455E+02 -0.292571575E+01  0.248675745E+01
  Xx -0.243243979E-15 -0.165623847E+04  0.249962132E+01
    11
 # iter = 36250  time[fs]=36.25000
   N -0.348856405E+01 -0.473940403E+01  0.249998641E+01
   N  0.348856405E+01 -0.473940403E+01  0.249998641E+01
   C -0.313867156E+01  0.427903137E+01  0.249966811E+01
   C  0.313867156E+01  0.427903137E+01  0.249966811E+01
   C -0.467016464E+01 -0.453716799E+00  0.250046986E+01
   C  0.467016464E+01 -0.453716799E+00  0.250046986E+01
   H -0.142053467E+02  0.222003120E+02  0.249248580E+01
   H  0.142053467E+02  0.222003120E+02  0.249248580E+01
   H -0.256938120E+02 -0.295105857E+01  0.248664522E+01
   H  0.256938120E+02 -0.295105857E+01  0.248664522E+01
  Xx -0.244954182E-15 -0.166787900E+04  0.249961863E+01
    11
 # iter = 36500  time[fs]=36.50000
   N -0.351047326E+01 -0.477052696E+01  0.249998786E+01
   N  0.351047326E+01 -0.477052696E+01  0.249998786E+01
   C -0.315918347E+01  0.430660487E+01  0.249966667E+01
   C  0.315918347E+01  0.430660487E+01  0.249966667E+01
   C -0.469947861E+01 -0.458785484E+00  0.250047643E+01
   C  0.469947861E+01 -0.458785484E+00  0.250047643E+01
   H -0.143109301E+02  0.223640193E+02  0.249242064E+01
   H  0.143109301E+02  0.223640193E+02  0.249242064E+01
   H -0.258840586E+02 -0.297642248E+01  0.248653298E+01
   H  0.258840586E+02 -0.297642248E+01  0.248653298E+01
  Xx -0.246664385E-15 -0.167951954E+04  0.249961595E+01
    11
 # iter = 36750  time[fs]=36.75000
   N -0.353236430E+01 -0.480166190E+01  0.249998965E+01
   N  0.353236430E+01 -0.480166190E+01  0.249998965E+01
   C -0.317973613E+01  0.433422743E+01  0.249966521E+01
   C  0.317973613E+01  0.433422743E+01  0.249966521E+01
   C -0.472882022E+01 -0.463855794E+00  0.250048174E+01
   C  0.472882022E+01 -0.463855794E+00  0.250048174E+01
   H -0.144165598E+02  0.225277976E+02  0.249235547E+01
   H  0.144165598E+02  0.225277976E+02  0.249235547E+01
   H -0.260743851E+02 -0.300180743E+01  0.248642074E+01
   H  0.260743851E+02 -0.300180743E+01  0.248642074E+01
  Xx -0.248374588E-15 -0.169116007E+04  0.249961327E+01
    11
 # iter = 37000  time[fs]=37.00000
   N -0.355421560E+01 -0.483277459E+01  0.249999150E+01
   N  0.355421560E+01 -0.483277459E+01  0.249999150E+01
   C -0.320028576E+01  0.436183815E+01  0.249966366E+01
   C  0.320028576E+01  0.436183815E+01  0.249966366E+01
   C -0.475820484E+01 -0.468937530E+00  0.250048743E+01
   C  0.475820484E+01 -0.468937530E+00  0.250048743E+01
   H -0.145222338E+02  0.226916470E+02  0.249229030E+01
   H  0.145222338E+02  0.226916470E+02  0.249229030E+01
   H -0.262647916E+02 -0.302721263E+01  0.248630850E+01
   H  0.262647916E+02 -0.302721263E+01  0.248630850E+01
  Xx -0.250084791E-15 -0.170280060E+04  0.249961059E+01
    11
 # iter = 37250  time[fs]=37.25000
   N -0.357601569E+01 -0.486386061E+01  0.249999306E+01
   N  0.357601569E+01 -0.486386061E+01  0.249999306E+01
   C -0.322086042E+01  0.438951636E+01  0.249966239E+01
   C  0.322086042E+01  0.438951636E+01  0.249966239E+01
   C -0.478759816E+01 -0.474044836E+00  0.250049360E+01
   C  0.478759816E+01 -0.474044836E+00  0.250049360E+01
   H -0.146279523E+02  0.228555675E+02  0.249222514E+01
   H  0.146279523E+02  0.228555675E+02  0.249222514E+01
   H -0.264552780E+02 -0.305263781E+01  0.248619626E+01
   H  0.264552780E+02 -0.305263781E+01  0.248619626E+01
  Xx -0.251794994E-15 -0.171444114E+04  0.249960790E+01
    11
 # iter = 37500  time[fs]=37.50000
   N -0.359776570E+01 -0.489496391E+01  0.249999438E+01
   N  0.359776570E+01 -0.489496391E+01  0.249999438E+01
   C -0.324146428E+01  0.441721373E+01  0.249966079E+01
   C  0.324146428E+01  0.441721373E+01  0.249966079E+01
   C -0.481702340E+01 -0.479144385E+00  0.250049836E+01
   C  0.481702340E+01 -0.479144385E+00  0.250049836E+01
   H -0.147337152E+02  0.230195590E+02  0.249215997E+01
   H  0.147337152E+02  0.230195590E+02  0.249215997E+01
   H -0.266458443E+02 -0.307808256E+01  0.248608402E+01
   H  0.266458443E+02 -0.307808256E+01  0.248608402E+01
  Xx -0.253505197E-15 -0.172608167E+04  0.249960522E+01
    11
 # iter = 37750  time[fs]=37.75000
   N -0.361948310E+01 -0.492613365E+01  0.249999599E+01
   N  0.361948310E+01 -0.492613365E+01  0.249999599E+01
   C -0.326206012E+01  0.444493346E+01  0.249965942E+01
   C  0.326206012E+01  0.444493346E+01  0.249965942E+01
   C -0.484648586E+01 -0.484265724E+00  0.250050442E+01
   C  0.484648586E+01 -0.484265724E+00  0.250050442E+01
   H -0.148395224E+02  0.231836195E+02  0.249209481E+01
   H  0.148395224E+02  0.231836195E+02  0.249209481E+01
   H -0.268364906E+02 -0.310354618E+01  0.248597178E+01
   H  0.268364906E+02 -0.310354618E+01  0.248597178E+01
  Xx -0.255215400E-15 -0.173772220E+04  0.249960254E+01
    11
 # iter = 38000  time[fs]=38.00000
   N -0.364119483E+01 -0.495738043E+01  0.249999798E+01
   N  0.364119483E+01 -0.495738043E+01  0.249999798E+01
   C -0.328268850E+01  0.447272214E+01  0.249965814E+01
   C  0.328268850E+01  0.447272214E+01  0.249965814E+01
   C -0.487594919E+01 -0.489393258E+00  0.250051003E+01
   C  0.487594919E+01 -0.489393258E+00  0.250051003E+01
   H -0.149453741E+02  0.233477426E+02  0.249202964E+01
   H  0.149453741E+02  0.233477426E+02  0.249202964E+01
   H -0.270272168E+02 -0.312902868E+01  0.248585954E+01
   H  0.270272168E+02 -0.312902868E+01  0.248585954E+01
  Xx -0.256925603E-15 -0.174936274E+04  0.249959986E+01
    11
 # iter = 38250  time[fs]=38.25000
   N -0.366292780E+01 -0.498869349E+01  0.249999972E+01
   N  0.366292780E+01 -0.498869349E+01  0.249999972E+01
   C -0.330332248E+01  0.450051154E+01  0.249965634E+01
   C  0.330332248E+01  0.450051154E+01  0.249965634E+01
   C -0.490545847E+01 -0.494518150E+00  0.250051492E+01
   C  0.490545847E+01 -0.494518150E+00  0.250051492E+01
   H -0.150512699E+02  0.235119280E+02  0.249196448E+01
   H  0.150512699E+02  0.235119280E+02  0.249196448E+01
   H -0.272180230E+02 -0.315453006E+01  0.248574730E+01
   H  0.272180230E+02 -0.315453006E+01  0.248574730E+01
  Xx -0.258635805E-15 -0.176100327E+04  0.249959717E+01
    11
 # iter = 38500  time[fs]=38.50000
   N -0.368470672E+01 -0.502005137E+01  0.250000104E+01
   N  0.368470672E+01 -0.502005137E+01  0.250000104E+01
   C -0.332394794E+01  0.452834794E+01  0.249965493E+01
   C  0.332394794E+01  0.452834794E+01  0.249965493E+01
   C -0.493499271E+01 -0.499660459E+00  0.250052117E+01
   C  0.493499271E+01 -0.499660459E+00  0.250052117E+01
   H -0.151572072E+02  0.236761754E+02  0.249189931E+01
   H  0.151572072E+02  0.236761754E+02  0.249189931E+01
   H -0.274089046E+02 -0.318005031E+01  0.248563506E+01
   H  0.274089046E+02 -0.318005031E+01  0.248563506E+01
  Xx -0.260346008E-15 -0.177264381E+04  0.249959449E+01
    11
 # iter = 38750  time[fs]=38.75000
   N -0.370654688E+01 -0.505141997E+01  0.250000244E+01
   N  0.370654688E+01 -0.505141997E+01  0.250000244E+01
   C -0.334460892E+01  0.455622107E+01  0.249965331E+01
   C  0.334460892E+01  0.455622107E+01  0.249965331E+01
   C -0.496454129E+01 -0.504801980E+00  0.250052592E+01
   C  0.496454129E+01 -0.504801980E+00  0.250052592E+01
   H -0.152631849E+02  0.238404851E+02  0.249183415E+01
   H  0.152631849E+02  0.238404851E+02  0.249183415E+01
   H -0.275998573E+02 -0.320558921E+01  0.248552282E+01
   H  0.275998573E+02 -0.320558921E+01  0.248552282E+01
  Xx -0.262056211E-15 -0.178428434E+04  0.249959181E+01
    11
 # iter = 39000  time[fs]=39.00000
   N -0.372843924E+01 -0.508276634E+01  0.250000419E+01
   N  0.372843924E+01 -0.508276634E+01  0.250000419E+01
   C -0.336525254E+01  0.458408990E+01  0.249965174E+01
   C  0.336525254E+01  0.458408990E+01  0.249965174E+01
   C -0.499414122E+01 -0.509952339E+00  0.250053107E+01
   C  0.499414122E+01 -0.509952339E+00  0.250053107E+01
   H -0.153692026E+02  0.240048569E+02  0.249176898E+01
   H  0.153692026E+02  0.240048569E+02  0.249176898E+01
   H -0.277908811E+02 -0.323114607E+01  0.248541058E+01
   H  0.277908811E+02 -0.323114607E+01  0.248541058E+01
  Xx -0.263766414E-15 -0.179592487E+04  0.249958913E+01
    11
 # iter = 39250  time[fs]=39.25000
   N -0.375035565E+01 -0.511408402E+01  0.250000597E+01
   N  0.375035565E+01 -0.511408402E+01  0.250000597E+01
   C -0.338591499E+01  0.461201361E+01  0.249965068E+01
   C  0.338591499E+01  0.461201361E+01  0.249965068E+01
   C -0.502374770E+01 -0.515107135E+00  0.250053674E+01
   C  0.502374770E+01 -0.515107135E+00  0.250053674E+01
   H -0.154752602E+02  0.241692909E+02  0.249170381E+01
   H  0.154752602E+02  0.241692909E+02  0.249170381E+01
   H -0.279819759E+02 -0.325672071E+01  0.248529835E+01
   H  0.279819759E+02 -0.325672071E+01  0.248529835E+01
  Xx -0.265476617E-15 -0.180756541E+04  0.249958645E+01
    11
 # iter = 39500  time[fs]=39.50000
   N -0.377226607E+01 -0.514541099E+01  0.250000740E+01
   N  0.377226607E+01 -0.514541099E+01  0.250000740E+01
   C -0.340660623E+01  0.463994393E+01  0.249964891E+01
   C  0.340660623E+01  0.463994393E+01  0.249964891E+01
   C -0.505337299E+01 -0.520259945E+00  0.250054104E+01
   C  0.505337299E+01 -0.520259945E+00  0.250054104E+01
   H -0.155813578E+02  0.243337871E+02  0.249163865E+01
   H  0.155813578E+02  0.243337871E+02  0.249163865E+01
   H -0.281731418E+02 -0.328231311E+01  0.248518611E+01
   H  0.281731418E+02 -0.328231311E+01  0.248518611E+01
  Xx -0.267186820E-15 -0.181920594E+04  0.249958376E+01
    11
 # iter = 39750  time[fs]=39.75000
   N -0.379415174E+01 -0.517680005E+01  0.250000871E+01
   N  0.379415174E+01 -0.517680005E+01  0.250000871E+01
   C -0.342728238E+01  0.466790468E+01  0.249964780E+01
   C  0.342728238E+01  0.466790468E+01  0.249964780E+01
   C -0.508304456E+01 -0.525420242E+00  0.250054670E+01
   C  0.508304456E+01 -0.525420242E+00  0.250054670E+01
   H -0.156874954E+02  0.244983454E+02  0.249157348E+01
   H  0.156874954E+02  0.244983454E+02  0.249157348E+01
   H -0.283643787E+02 -0.330792327E+01  0.248507387E+01
   H  0.283643787E+02 -0.330792327E+01  0.248507387E+01
  Xx -0.268897023E-15 -0.183084647E+04  0.249958108E+01
    11
 # iter = 40000  time[fs]=40.00000
   N -0.381599542E+01 -0.520827260E+01  0.250001012E+01
   N  0.381599542E+01 -0.520827260E+01  0.250001012E+01
   C -0.344801104E+01  0.469591840E+01  0.249964654E+01
   C  0.344801104E+01  0.469591840E+01  0.249964654E+01
   C -0.511271284E+01 -0.530581343E+00  0.250055143E+01
   C  0.511271284E+01 -0.530581343E+00  0.250055143E+01
   H -0.157936730E+02  0.246629659E+02  0.249150832E+01
   H  0.157936730E+02  0.246629659E+02  0.249150832E+01
   H -0.285556866E+02 -0.333355110E+01  0.248496163E+01
   H  0.285556866E+02 -0.333355110E+01  0.248496163E+01
  Xx -0.270607226E-15 -0.184248701E+04  0.249957840E+01
    11
 # iter = 40250  time[fs]=40.25000
   N -0.383777705E+01 -0.523981555E+01  0.250001164E+01
   N  0.383777705E+01 -0.523981555E+01  0.250001164E+01
   C -0.346874256E+01  0.472393580E+01  0.249964486E+01
   C  0.346874256E+01  0.472393580E+01  0.249964486E+01
   C -0.514242012E+01 -0.535747672E+00  0.250055577E+01
   C  0.514242012E+01 -0.535747672E+00  0.250055577E+01
   H -0.158998905E+02  0.248276486E+02  0.249144315E+01
   H  0.158998905E+02  0.248276486E+02  0.249144315E+01
   H -0.287470657E+02 -0.335919592E+01  0.248484939E+01
   H  0.287470657E+02 -0.335919592E+01  0.248484939E+01
  Xx -0.272317429E-15 -0.185412754E+04  0.249957572E+01
    11
 # iter = 40500  time[fs]=40.50000
   N -0.385949836E+01 -0.527139906E+01  0.250001304E+01
   N  0.385949836E+01 -0.527139906E+01  0.250001304E+01
   C -0.348948051E+01  0.475200587E+01  0.249964396E+01
   C  0.348948051E+01  0.475200587E+01  0.249964396E+01
   C -0.517216091E+01 -0.540906668E+00  0.250056125E+01
   C  0.517216091E+01 -0.540906668E+00  0.250056125E+01
   H -0.160061480E+02  0.249923935E+02  0.249137799E+01
   H  0.160061480E+02  0.249923935E+02  0.249137799E+01
   H -0.289385157E+02 -0.338485743E+01  0.248473715E+01
   H  0.289385157E+02 -0.338485743E+01  0.248473715E+01
  Xx -0.274027632E-15 -0.186576808E+04  0.249957303E+01
    11
 # iter = 40750  time[fs]=40.75000
   N -0.388119768E+01 -0.530298536E+01  0.250001412E+01
   N  0.388119768E+01 -0.530298536E+01  0.250001412E+01
   C -0.351026483E+01  0.478010412E+01  0.249964247E+01
   C  0.351026483E+01  0.478010412E+01  0.249964247E+01
   C -0.520190494E+01 -0.546070350E+00  0.250056516E+01
   C  0.520190494E+01 -0.546070350E+00  0.250056516E+01
   H -0.161124429E+02  0.251571968E+02  0.249131282E+01
   H  0.161124429E+02  0.251571968E+02  0.249131282E+01
   H -0.291300369E+02 -0.341053559E+01  0.248462491E+01
   H  0.291300369E+02 -0.341053559E+01  0.248462491E+01
  Xx -0.275737835E-15 -0.187740861E+04  0.249957035E+01
    11
 # iter = 41000  time[fs]=41.00000
   N -0.390291497E+01 -0.533454617E+01  0.250001525E+01
   N  0.390291497E+01 -0.533454617E+01  0.250001525E+01
   C -0.353102474E+01  0.480821047E+01  0.249964136E+01
   C  0.353102474E+01  0.480821047E+01  0.249964136E+01
   C -0.523169787E+01 -0.551234328E+00  0.250056997E+01
   C  0.523169787E+01 -0.551234328E+00  0.250056997E+01
   H -0.162187734E+02  0.253220535E+02  0.249124765E+01
   H  0.162187734E+02  0.253220535E+02  0.249124765E+01
   H -0.293216256E+02 -0.343623040E+01  0.248451267E+01
   H  0.293216256E+02 -0.343623040E+01  0.248451267E+01
  Xx -0.277448038E-15 -0.188904914E+04  0.249956767E+01
    11
 # iter = 41250  time[fs]=41.25000
   N -0.392466340E+01 -0.536608677E+01  0.250001679E+01
   N  0.392466340E+01 -0.536608677E+01  0.250001679E+01
   C -0.355180735E+01  0.483635955E+01  0.249964071E+01
   C  0.355180735E+01  0.483635955E+01  0.249964071E+01
   C -0.526150685E+01 -0.556385646E+00  0.250057484E+01
   C  0.526150685E+01 -0.556385646E+00  0.250057484E+01
   H -0.163251395E+02  0.254869635E+02  0.249118249E+01
   H  0.163251395E+02  0.254869635E+02  0.249118249E+01
   H -0.295132766E+02 -0.346194186E+01  0.248440043E+01
   H  0.295132766E+02 -0.346194186E+01  0.248440043E+01
  Xx -0.279158241E-15 -0.190068968E+04  0.249956499E+01
    11
 # iter = 41500  time[fs]=41.50000
   N -0.394644913E+01 -0.539764372E+01  0.250001837E+01
   N  0.394644913E+01 -0.539764372E+01  0.250001837E+01
   C -0.357261020E+01  0.486451211E+01  0.249963949E+01
   C  0.357261020E+01  0.486451211E+01  0.249963949E+01
   C -0.529132649E+01 -0.561548988E+00  0.250057852E+01
   C  0.529132649E+01 -0.561548988E+00  0.250057852E+01
   H -0.164315410E+02  0.256519267E+02  0.249111732E+01
   H  0.164315410E+02  0.256519267E+02  0.249111732E+01
   H -0.297049898E+02 -0.348766979E+01  0.248428819E+01
   H  0.297049898E+02 -0.348766979E+01  0.248428819E+01
  Xx -0.280868444E-15 -0.191233021E+04  0.249956230E+01
    11
 # iter = 41750  time[fs]=41.75000
   N -0.396828495E+01 -0.542925723E+01  0.250001966E+01
   N  0.396828495E+01 -0.542925723E+01  0.250001966E+01
   C -0.359338532E+01  0.489269931E+01  0.249963901E+01
   C  0.359338532E+01  0.489269931E+01  0.249963901E+01
   C -0.532118984E+01 -0.566701625E+00  0.250058346E+01
   C  0.532118984E+01 -0.566701625E+00  0.250058346E+01
   H -0.165379781E+02  0.258169432E+02  0.249105216E+01
   H  0.165379781E+02  0.258169432E+02  0.249105216E+01
   H -0.298967651E+02 -0.351341337E+01  0.248417595E+01
   H  0.298967651E+02 -0.351341337E+01  0.248417595E+01
  Xx -0.282578647E-15 -0.192397074E+04  0.249955962E+01
    11
 # iter = 42000  time[fs]=42.00000
   N -0.399016606E+01 -0.546094891E+01  0.250002067E+01
   N  0.399016606E+01 -0.546094891E+01  0.250002067E+01
   C -0.361421071E+01  0.492092093E+01  0.249963804E+01
   C  0.361421071E+01  0.492092093E+01  0.249963804E+01
   C -0.535105706E+01 -0.571856275E+00  0.250058730E+01
   C  0.535105706E+01 -0.571856275E+00  0.250058730E+01
   H -0.166444507E+02  0.259820131E+02  0.249098699E+01
   H  0.166444507E+02  0.259820131E+02  0.249098699E+01
   H -0.300886026E+02 -0.353917248E+01  0.248406372E+01
   H  0.300886026E+02 -0.353917248E+01  0.248406372E+01
  Xx -0.284288850E-15 -0.193561128E+04  0.249955694E+01
    11
 # iter = 42250  time[fs]=42.25000
   N -0.401206025E+01 -0.549271518E+01  0.250002187E+01
   N  0.401206025E+01 -0.549271518E+01  0.250002187E+01
   C -0.363502023E+01  0.494915757E+01  0.249963681E+01
   C  0.363502023E+01  0.494915757E+01  0.249963681E+01
   C -0.538094660E+01 -0.577020164E+00  0.250059115E+01
   C  0.538094660E+01 -0.577020164E+00  0.250059115E+01
   H -0.167509588E+02  0.261471362E+02  0.249092183E+01
   H  0.167509588E+02  0.261471362E+02  0.249092183E+01
   H -0.302805023E+02 -0.356494714E+01  0.248395148E+01
   H  0.302805023E+02 -0.356494714E+01  0.248395148E+01
  Xx -0.285999053E-15 -0.194725181E+04  0.249955426E+01
    11
 # iter = 42500  time[fs]=42.50000
   N -0.403392830E+01 -0.552452267E+01  0.250002340E+01
   N  0.403392830E+01 -0.552452267E+01  0.250002340E+01
   C -0.365583567E+01  0.497744576E+01  0.249963618E+01
   C  0.365583567E+01  0.497744576E+01  0.249963618E+01
   C -0.541087560E+01 -0.582164350E+00  0.250059570E+01
   C  0.541087560E+01 -0.582164350E+00  0.250059570E+01
   H -0.168575025E+02  0.263123126E+02  0.249085666E+01
   H  0.168575025E+02  0.263123126E+02  0.249085666E+01
   H -0.304724641E+02 -0.359073734E+01  0.248383924E+01
   H  0.304724641E+02 -0.359073734E+01  0.248383924E+01
  Xx -0.287709256E-15 -0.195889234E+04  0.249955158E+01
    11
 # iter = 42750  time[fs]=42.75000
   N -0.405574888E+01 -0.555632075E+01  0.250002484E+01
   N  0.405574888E+01 -0.555632075E+01  0.250002484E+01
   C -0.367670072E+01  0.500575125E+01  0.249963493E+01
   C  0.367670072E+01  0.500575125E+01  0.249963493E+01
   C -0.544080963E+01 -0.587327906E+00  0.250059892E+01
   C  0.544080963E+01 -0.587327906E+00  0.250059892E+01
   H -0.169640817E+02  0.264775423E+02  0.249079149E+01
   H  0.169640817E+02  0.264775423E+02  0.249079149E+01
   H -0.306644881E+02 -0.361654309E+01  0.248372700E+01
   H  0.306644881E+02 -0.361654309E+01  0.248372700E+01
  Xx -0.289419459E-15 -0.197053288E+04  0.249954889E+01
    11
 # iter = 43000  time[fs]=43.00000
   N -0.407752008E+01 -0.558807791E+01  0.250002588E+01
   N  0.407752008E+01 -0.558807791E+01  0.250002588E+01
   C -0.369753738E+01  0.503407882E+01  0.249963408E+01
   C  0.369753738E+01  0.503407882E+01  0.249963408E+01
   C -0.547077712E+01 -0.592479869E+00  0.250060336E+01
   C  0.547077712E+01 -0.592479869E+00  0.250060336E+01
   H -0.170706964E+02  0.266428253E+02  0.249072633E+01
   H  0.170706964E+02  0.266428253E+02  0.249072633E+01
   H -0.308565743E+02 -0.364236437E+01  0.248361476E+01
   H  0.308565743E+02 -0.364236437E+01  0.248361476E+01
  Xx -0.291129661E-15 -0.198217341E+04  0.249954621E+01
    11
 # iter = 43250  time[fs]=43.25000
   N -0.409924554E+01 -0.561981105E+01  0.250002689E+01
   N  0.409924554E+01 -0.561981105E+01  0.250002689E+01
   C -0.371842183E+01  0.506243707E+01  0.249963358E+01
   C  0.371842183E+01  0.506243707E+01  0.249963358E+01
   C -0.550077576E+01 -0.597624981E+00  0.250060728E+01
   C  0.550077576E+01 -0.597624981E+00  0.250060728E+01
   H -0.171773467E+02  0.268081616E+02  0.249066116E+01
   H  0.171773467E+02  0.268081616E+02  0.249066116E+01
   H -0.310487227E+02 -0.366820056E+01  0.248350252E+01
   H  0.310487227E+02 -0.366820056E+01  0.248350252E+01
  Xx -0.292839864E-15 -0.199381395E+04  0.249954353E+01
    11
 # iter = 43500  time[fs]=43.50000
   N -0.412093303E+01 -0.565156910E+01  0.250002835E+01
   N  0.412093303E+01 -0.565156910E+01  0.250002835E+01
   C -0.373932042E+01  0.509080033E+01  0.249963260E+01
   C  0.373932042E+01  0.509080033E+01  0.249963260E+01
   C -0.553078082E+01 -0.602789017E+00  0.250061063E+01
   C  0.553078082E+01 -0.602789017E+00  0.250061063E+01
   H -0.172840324E+02  0.269735511E+02  0.249059600E+01
   H  0.172840324E+02  0.269735511E+02  0.249059600E+01
   H -0.312409332E+02 -0.369405118E+01  0.248339028E+01
   H  0.312409332E+02 -0.369405118E+01  0.248339028E+01
  Xx -0.294550067E-15 -0.200545448E+04  0.249954085E+01
    11
 # iter = 43750  time[fs]=43.75000
   N -0.414260819E+01 -0.568338512E+01  0.250003003E+01
   N  0.414260819E+01 -0.568338512E+01  0.250003003E+01
   C -0.376020142E+01  0.511919637E+01  0.249963219E+01
   C  0.376020142E+01  0.511919637E+01  0.249963219E+01
   C -0.556081600E+01 -0.607930855E+00  0.250061526E+01
   C  0.556081600E+01 -0.607930855E+00  0.250061526E+01
   H -0.173907537E+02  0.271389940E+02  0.249053083E+01
   H  0.173907537E+02  0.271389940E+02  0.249053083E+01
   H -0.314332059E+02 -0.371991623E+01  0.248327804E+01
   H  0.314332059E+02 -0.371991623E+01  0.248327804E+01
  Xx -0.296260270E-15 -0.201709501E+04  0.249953816E+01
    11
 # iter = 44000  time[fs]=44.00000
   N -0.416431002E+01 -0.571526753E+01  0.250003138E+01
   N  0.416431002E+01 -0.571526753E+01  0.250003138E+01
   C -0.378113883E+01  0.514760905E+01  0.249963165E+01
   C  0.378113883E+01  0.514760905E+01  0.249963165E+01
   C -0.559087478E+01 -0.613088624E+00  0.250061843E+01
   C  0.559087478E+01 -0.613088624E+00  0.250061843E+01
   H -0.174975106E+02  0.273044901E+02  0.249046567E+01
   H  0.174975106E+02  0.273044901E+02  0.249046567E+01
   H -0.316255408E+02 -0.374579572E+01  0.248316580E+01
   H  0.316255408E+02 -0.374579572E+01  0.248316580E+01
  Xx -0.297970473E-15 -0.202873555E+04  0.249953548E+01
    11
 # iter = 44250  time[fs]=44.25000
   N -0.418606327E+01 -0.574721120E+01  0.250003225E+01
   N  0.418606327E+01 -0.574721120E+01  0.250003225E+01
   C -0.380205141E+01  0.517604849E+01  0.249963082E+01
   C  0.380205141E+01  0.517604849E+01  0.249963082E+01
   C -0.562093708E+01 -0.618246748E+00  0.250062231E+01
   C  0.562093708E+01 -0.618246748E+00  0.250062231E+01
   H -0.176043029E+02  0.274700396E+02  0.249040050E+01
   H  0.176043029E+02  0.274700396E+02  0.249040050E+01
   H -0.318179374E+02 -0.377168964E+01  0.248305356E+01
   H  0.318179374E+02 -0.377168964E+01  0.248305356E+01
  Xx -0.299680676E-15 -0.204037608E+04  0.249953280E+01
    11
 # iter = 44500  time[fs]=44.50000
   N -0.420787044E+01 -0.577918919E+01  0.250003310E+01
   N  0.420787044E+01 -0.577918919E+01  0.250003310E+01
   C -0.382296821E+01  0.520452532E+01  0.249963069E+01
   C  0.382296821E+01  0.520452532E+01  0.249963069E+01
   C -0.565103641E+01 -0.623394568E+00  0.250062640E+01
   C  0.565103641E+01 -0.623394568E+00  0.250062640E+01
   H -0.177111308E+02  0.276356422E+02  0.249033534E+01
   H  0.177111308E+02  0.276356422E+02  0.249033534E+01
   H -0.320103892E+02 -0.379759799E+01  0.248294132E+01
   H  0.320103892E+02 -0.379759799E+01  0.248294132E+01
  Xx -0.301390879E-15 -0.205201661E+04  0.249953012E+01
    11
 # iter = 44750  time[fs]=44.75000
   N -0.422972137E+01 -0.581115499E+01  0.250003432E+01
   N  0.422972137E+01 -0.581115499E+01  0.250003432E+01
   C -0.384392297E+01  0.523301750E+01  0.249963009E+01
   C  0.384392297E+01  0.523301750E+01  0.249963009E+01
   C -0.568115431E+01 -0.628564918E+00  0.250062896E+01
   C  0.568115431E+01 -0.628564918E+00  0.250062896E+01
   H -0.178179942E+02  0.278012920E+02  0.249027017E+01
   H  0.178179942E+02  0.278012920E+02  0.249027017E+01
   H -0.322028943E+02 -0.382352062E+01  0.248282909E+01
   H  0.322028943E+02 -0.382352062E+01  0.248282909E+01
  Xx -0.303101082E-15 -0.206365715E+04  0.249952743E+01
    11
 # iter = 45000  time[fs]=45.00000
   N -0.425159677E+01 -0.584307383E+01  0.250003560E+01
   N  0.425159677E+01 -0.584307383E+01  0.250003560E+01
   C -0.386483653E+01  0.526154664E+01  0.249962949E+01
   C  0.386483653E+01  0.526154664E+01  0.249962949E+01
   C -0.571128394E+01 -0.633723020E+00  0.250063299E+01
   C  0.571128394E+01 -0.633723020E+00  0.250063299E+01
   H -0.179248931E+02  0.279669862E+02  0.249020500E+01
   H  0.179248931E+02  0.279669862E+02  0.249020500E+01
   H -0.323954528E+02 -0.384945669E+01  0.248271685E+01
   H  0.323954528E+02 -0.384945669E+01  0.248271685E+01
  Xx -0.304811285E-15 -0.207529768E+04  0.249952475E+01
    11
 # iter = 45250  time[fs]=45.25000
   N -0.427347099E+01 -0.587496135E+01  0.250003662E+01
   N  0.427347099E+01 -0.587496135E+01  0.250003662E+01
   C -0.388579565E+01  0.529009323E+01  0.249962955E+01
   C  0.388579565E+01  0.529009323E+01  0.249962955E+01
   C -0.574145944E+01 -0.638893539E+00  0.250063618E+01
   C  0.574145944E+01 -0.638893539E+00  0.250063618E+01
   H -0.180318276E+02  0.281327249E+02  0.249013984E+01
   H  0.180318276E+02  0.281327249E+02  0.249013984E+01
   H -0.325880645E+02 -0.387540608E+01  0.248260461E+01
   H  0.325880645E+02 -0.387540608E+01  0.248260461E+01
  Xx -0.306521488E-15 -0.208693822E+04  0.249952207E+01
    11
 # iter = 45500  time[fs]=45.50000
   N -0.429531879E+01 -0.590687782E+01  0.250003730E+01
   N  0.429531879E+01 -0.590687782E+01  0.250003730E+01
   C -0.390675667E+01  0.531865581E+01  0.249962886E+01
   C  0.390675667E+01  0.531865581E+01  0.249962886E+01
   C -0.577164206E+01 -0.644075383E+00  0.250063916E+01
   C  0.577164206E+01 -0.644075383E+00  0.250063916E+01
   H -0.181387961E+02  0.282985080E+02  0.249007467E+01
   H  0.181387961E+02  0.282985080E+02  0.249007467E+01
   H -0.327807295E+02 -0.390136880E+01  0.248249237E+01
   H  0.327807295E+02 -0.390136880E+01  0.248249237E+01
  Xx -0.308231691E-15 -0.209857875E+04  0.249951939E+01
    11
 # iter = 45750  time[fs]=45.75000
   N -0.431712059E+01 -0.593886537E+01  0.250003806E+01
   N  0.431712059E+01 -0.593886537E+01  0.250003806E+01
   C -0.392770853E+01  0.534724534E+01  0.249962875E+01
   C  0.392770853E+01  0.534724534E+01  0.249962875E+01
   C -0.580183559E+01 -0.649252755E+00  0.250064341E+01
   C  0.580183559E+01 -0.649252755E+00  0.250064341E+01
   H -0.182457921E+02  0.284643355E+02  0.249000951E+01
   H  0.182457921E+02  0.284643355E+02  0.249000951E+01
   H -0.329734478E+02 -0.392734484E+01  0.248238013E+01
   H  0.329734478E+02 -0.392734484E+01  0.248238013E+01
  Xx -0.309941894E-15 -0.211021928E+04  0.249951671E+01
    11
 # iter = 46000  time[fs]=46.00000
   N -0.433886566E+01 -0.597092345E+01  0.250003931E+01
   N  0.433886566E+01 -0.597092345E+01  0.250003931E+01
   C -0.394872068E+01  0.537583890E+01  0.249962905E+01
   C  0.394872068E+01  0.537583890E+01  0.249962905E+01
   C -0.583207174E+01 -0.654443848E+00  0.250064591E+01
   C  0.583207174E+01 -0.654443848E+00  0.250064591E+01
   H -0.183528147E+02  0.286302073E+02  0.248994434E+01
   H  0.183528147E+02  0.286302073E+02  0.248994434E+01
   H -0.331662193E+02 -0.395333420E+01  0.248226789E+01
   H  0.331662193E+02 -0.395333420E+01  0.248226789E+01
  Xx -0.311652097E-15 -0.212185982E+04  0.249951402E+01
    11
 # iter = 46250  time[fs]=46.25000
   N -0.436056215E+01 -0.600303292E+01  0.250004063E+01
   N  0.436056215E+01 -0.600303292E+01  0.250004063E+01
   C -0.396970743E+01  0.540446963E+01  0.249962849E+01
   C  0.396970743E+01  0.540446963E+01  0.249962849E+01
   C -0.586229975E+01 -0.659642391E+00  0.250064944E+01
   C  0.586229975E+01 -0.659642391E+00  0.250064944E+01
   H -0.184598639E+02  0.287961236E+02  0.248987918E+01
   H  0.184598639E+02  0.287961236E+02  0.248987918E+01
   H -0.333590442E+02 -0.397933689E+01  0.248215565E+01
   H  0.333590442E+02 -0.397933689E+01  0.248215565E+01
  Xx -0.313362300E-15 -0.213350035E+04  0.249951134E+01
    11
 # iter = 46500  time[fs]=46.50000
   N -0.438223971E+01 -0.603516380E+01  0.250004133E+01
   N  0.438223971E+01 -0.603516380E+01  0.250004133E+01
   C -0.399072287E+01  0.543311895E+01  0.249962878E+01
   C  0.399072287E+01  0.543311895E+01  0.249962878E+01
   C -0.589255465E+01 -0.664848972E+00  0.250065304E+01
   C  0.589255465E+01 -0.664848972E+00  0.250065304E+01
   H -0.185669398E+02  0.289620843E+02  0.248981401E+01
   H  0.185669398E+02  0.289620843E+02  0.248981401E+01
   H -0.335519224E+02 -0.400535289E+01  0.248204341E+01
   H  0.335519224E+02 -0.400535289E+01  0.248204341E+01
  Xx -0.315072503E-15 -0.214514088E+04  0.249950866E+01
    11
 # iter = 46750  time[fs]=46.75000
   N -0.440393046E+01 -0.606728023E+01  0.250004172E+01
   N  0.440393046E+01 -0.606728023E+01  0.250004172E+01
   C -0.401177020E+01  0.546178918E+01  0.249962852E+01
   C  0.401177020E+01  0.546178918E+01  0.249962852E+01
   C -0.592284331E+01 -0.670060765E+00  0.250065521E+01
   C  0.592284331E+01 -0.670060765E+00  0.250065521E+01
   H -0.186740424E+02  0.291280895E+02  0.248974884E+01
   H  0.186740424E+02  0.291280895E+02  0.248974884E+01
   H -0.337448538E+02 -0.403138222E+01  0.248193117E+01
   H  0.337448538E+02 -0.403138222E+01  0.248193117E+01
  Xx -0.316782706E-15 -0.215678142E+04  0.249950598E+01
    11
 # iter = 47000  time[fs]=47.00000
   N -0.442565160E+01 -0.609935857E+01  0.250004249E+01
   N  0.442565160E+01 -0.609935857E+01  0.250004249E+01
   C -0.403278583E+01  0.549050108E+01  0.249962796E+01
   C  0.403278583E+01  0.549050108E+01  0.249962796E+01
   C -0.595313044E+01 -0.675287477E+00  0.250065893E+01
   C  0.595313044E+01 -0.675287477E+00  0.250065893E+01
   H -0.187811715E+02  0.292941390E+02  0.248968368E+01
   H  0.187811715E+02  0.292941390E+02  0.248968368E+01
   H -0.339378386E+02 -0.405742488E+01  0.248181893E+01
   H  0.339378386E+02 -0.405742488E+01  0.248181893E+01
  Xx -0.318492909E-15 -0.216842195E+04  0.249950329E+01
    11
 # iter = 47250  time[fs]=47.25000
   N -0.444741388E+01 -0.613141442E+01  0.250004371E+01
   N  0.444741388E+01 -0.613141442E+01  0.250004371E+01
   C -0.405384773E+01  0.551921879E+01  0.249962856E+01
   C  0.405384773E+01  0.551921879E+01  0.249962856E+01
   C -0.598346332E+01 -0.680514236E+00  0.250066148E+01
   C  0.598346332E+01 -0.680514236E+00  0.250066148E+01
   H -0.188883274E+02  0.294602329E+02  0.248961851E+01
   H  0.188883274E+02  0.294602329E+02  0.248961851E+01
   H -0.341308766E+02 -0.408348085E+01  0.248170669E+01
   H  0.341308766E+02 -0.408348085E+01  0.248170669E+01
  Xx -0.320203112E-15 -0.218006249E+04  0.249950061E+01
    11
 # iter = 47500  time[fs]=47.50000
   N -0.446922451E+01 -0.616350281E+01  0.250004465E+01
   N  0.446922451E+01 -0.616350281E+01  0.250004465E+01
   C -0.407490380E+01  0.554796718E+01  0.249962812E+01
   C  0.407490380E+01  0.554796718E+01  0.249962812E+01
   C -0.601381404E+01 -0.685754339E+00  0.250066384E+01
   C  0.601381404E+01 -0.685754339E+00  0.250066384E+01
   H -0.189955098E+02  0.296263713E+02  0.248955335E+01
   H  0.189955098E+02  0.296263713E+02  0.248955335E+01
   H -0.343239679E+02 -0.410955015E+01  0.248159446E+01
   H  0.343239679E+02 -0.410955015E+01  0.248159446E+01
  Xx -0.321913315E-15 -0.219170302E+04  0.249949793E+01
    11
 # iter = 47750  time[fs]=47.75000
   N -0.449107523E+01 -0.619566791E+01  0.250004498E+01
   N  0.449107523E+01 -0.619566791E+01  0.250004498E+01
   C -0.409594240E+01  0.557673282E+01  0.249962851E+01
   C  0.409594240E+01  0.557673282E+01  0.249962851E+01
   C -0.604416687E+01 -0.691016837E+00  0.250066728E+01
   C  0.604416687E+01 -0.691016837E+00  0.250066728E+01
   H -0.191027190E+02  0.297925540E+02  0.248948818E+01
   H  0.191027190E+02  0.297925540E+02  0.248948818E+01
   H -0.345171126E+02 -0.413563263E+01  0.248148222E+01
   H  0.345171126E+02 -0.413563263E+01  0.248148222E+01
  Xx -0.323623517E-15 -0.220334355E+04  0.249949525E+01
    11
 # iter = 48000  time[fs]=48.00000
   N -0.451293555E+01 -0.622790874E+01  0.250004519E+01
   N  0.451293555E+01 -0.622790874E+01  0.250004519E+01
   C -0.411702831E+01  0.560549861E+01  0.249962919E+01
   C  0.411702831E+01  0.560549861E+01  0.249962919E+01
   C -0.607455387E+01 -0.696268457E+00  0.250066914E+01
   C  0.607455387E+01 -0.696268457E+00  0.250066914E+01
   H -0.192099547E+02  0.299587812E+02  0.248942302E+01
   H  0.192099547E+02  0.299587812E+02  0.248942302E+01
   H -0.347103105E+02 -0.416172669E+01  0.248136998E+01
   H  0.347103105E+02 -0.416172669E+01  0.248136998E+01
  Xx -0.325333720E-15 -0.221498409E+04  0.249949256E+01
    11
 # iter = 48250  time[fs]=48.25000
   N -0.453476923E+01 -0.626019375E+01  0.250004598E+01
   N  0.453476923E+01 -0.626019375E+01  0.250004598E+01
   C -0.413808103E+01  0.563431057E+01  0.249962865E+01
   C  0.413808103E+01  0.563431057E+01  0.249962865E+01
   C -0.610494870E+01 -0.701548238E+00  0.250067188E+01
   C  0.610494870E+01 -0.701548238E+00  0.250067188E+01
   H -0.193172171E+02  0.301250527E+02  0.248935785E+01
   H  0.193172171E+02  0.301250527E+02  0.248935785E+01
   H -0.349035617E+02 -0.418783184E+01  0.248125774E+01
   H  0.349035617E+02 -0.418783184E+01  0.248125774E+01
  Xx -0.327043923E-15 -0.222662462E+04  0.249948988E+01
    11
 # iter = 48500  time[fs]=48.50000
   N -0.455655696E+01 -0.629248435E+01  0.250004712E+01
   N  0.455655696E+01 -0.629248435E+01  0.250004712E+01
   C -0.415916641E+01  0.566312218E+01  0.249962953E+01
   C  0.415916641E+01  0.566312218E+01  0.249962953E+01
   C -0.613535289E+01 -0.706834972E+00  0.250067446E+01
   C  0.613535289E+01 -0.706834972E+00  0.250067446E+01
   H -0.194245062E+02  0.302913687E+02  0.248929269E+01
   H  0.194245062E+02  0.302913687E+02  0.248929269E+01
   H -0.350968661E+02 -0.421394810E+01  0.248114550E+01
   H  0.350968661E+02 -0.421394810E+01  0.248114550E+01
  Xx -0.328754126E-15 -0.223826515E+04  0.249948720E+01
    11
 # iter = 48750  time[fs]=48.75000
   N -0.457829750E+01 -0.632474845E+01  0.250004765E+01
   N  0.457829750E+01 -0.632474845E+01  0.250004765E+01
   C -0.418027440E+01  0.569196529E+01  0.249962971E+01
   C  0.418027440E+01  0.569196529E+01  0.249962971E+01
   C -0.616579049E+01 -0.712115009E+00  0.250067619E+01
   C  0.616579049E+01 -0.712115009E+00  0.250067619E+01
   H -0.195318219E+02  0.304577291E+02  0.248922752E+01
   H  0.195318219E+02  0.304577291E+02  0.248922752E+01
   H -0.352902239E+02 -0.424007546E+01  0.248103326E+01
   H  0.352902239E+02 -0.424007546E+01  0.248103326E+01
  Xx -0.330464329E-15 -0.224990569E+04  0.249948452E+01
    11
 # iter = 49000  time[fs]=49.00000
   N -0.459999276E+01 -0.635697766E+01  0.250004756E+01
   N  0.459999276E+01 -0.635697766E+01  0.250004756E+01
   C -0.420136218E+01  0.572084835E+01  0.249962985E+01
   C  0.420136218E+01  0.572084835E+01  0.249962985E+01
   C -0.619624512E+01 -0.717428301E+00  0.250067923E+01
   C  0.619624512E+01 -0.717428301E+00  0.250067923E+01
   H -0.196391643E+02  0.306241339E+02  0.248916235E+01
   H  0.196391643E+02  0.306241339E+02  0.248916235E+01
   H -0.354836350E+02 -0.426621392E+01  0.248092102E+01
   H  0.354836350E+02 -0.426621392E+01  0.248092102E+01
  Xx -0.332174532E-15 -0.226154622E+04  0.249948184E+01
    11
 # iter = 49250  time[fs]=49.25000
   N -0.462164867E+01 -0.638919759E+01  0.250004765E+01
   N  0.462164867E+01 -0.638919759E+01  0.250004765E+01
   C -0.422250493E+01  0.574972968E+01  0.249963096E+01
   C  0.422250493E+01  0.574972968E+01  0.249963096E+01
   C -0.622671746E+01 -0.722729965E+00  0.250068100E+01
   C  0.622671746E+01 -0.722729965E+00  0.250068100E+01
   H -0.197465332E+02  0.307905831E+02  0.248909719E+01
   H  0.197465332E+02  0.307905831E+02  0.248909719E+01
   H -0.356770994E+02 -0.429236348E+01  0.248080878E+01
   H  0.356770994E+02 -0.429236348E+01  0.248080878E+01
  Xx -0.333884735E-15 -0.227318676E+04  0.249947915E+01
    11
 # iter = 49500  time[fs]=49.50000
   N -0.464329399E+01 -0.642145600E+01  0.250004833E+01
   N  0.464329399E+01 -0.642145600E+01  0.250004833E+01
   C -0.424363982E+01  0.577865934E+01  0.249963064E+01
   C  0.424363982E+01  0.577865934E+01  0.249963064E+01
   C -0.625722375E+01 -0.728040050E+00  0.250068298E+01
   C  0.625722375E+01 -0.728040050E+00  0.250068298E+01
   H -0.198539289E+02  0.309570767E+02  0.248903202E+01
   H  0.198539289E+02  0.309570767E+02  0.248903202E+01
   H -0.358706170E+02 -0.431852414E+01  0.248069654E+01
   H  0.358706170E+02 -0.431852414E+01  0.248069654E+01
  Xx -0.335594938E-15 -0.228482729E+04  0.249947647E+01
    11
 # iter = 49750  time[fs]=49.75000
   N -0.466496981E+01 -0.645378368E+01  0.250004907E+01
   N  0.466496981E+01 -0.645378368E+01  0.250004907E+01
   C -0.426477977E+01  0.580759393E+01  0.249963140E+01
   C  0.426477977E+01  0.580759393E+01  0.249963140E+01
   C -0.628774077E+01 -0.733372624E+00  0.250068546E+01
   C  0.628774077E+01 -0.733372624E+00  0.250068546E+01
   H -0.199613512E+02  0.311236147E+02  0.248896686E+01
   H  0.199613512E+02  0.311236147E+02  0.248896686E+01
   H -0.360641879E+02 -0.434469591E+01  0.248058430E+01
   H  0.360641879E+02 -0.434469591E+01  0.248058430E+01
  Xx -0.337305141E-15 -0.229646782E+04  0.249947379E+01
    11
 # iter = 50000  time[fs]=50.00000
   N -0.468669682E+01 -0.648617740E+01  0.250004924E+01
   N  0.468669682E+01 -0.648617740E+01  0.250004924E+01
   C -0.428595707E+01  0.583653107E+01  0.249963206E+01
   C  0.428595707E+01  0.583653107E+01  0.249963206E+01
   C -0.631826187E+01 -0.738687192E+00  0.250068668E+01
   C  0.631826187E+01 -0.738687192E+00  0.250068668E+01
   H -0.200688001E+02  0.312901968E+02  0.248890169E+01
   H  0.200688001E+02  0.312901968E+02  0.248890169E+01
   H -0.362578122E+02 -0.437087878E+01  0.248047206E+01
   H  0.362578122E+02 -0.437087878E+01  0.248047206E+01
  Xx -0.339015344E-15 -0.230810836E+04  0.249947111E+01
