    15
 # iter =     0  time[fs]= 0.00000
 C  -1.0693121949  -0.6658553809   0.2484739279
 C  -0.9859572843   0.7894078088  -0.2384276029
 C   0.2956343273  -1.2524747680  -0.1608320122
 C   0.4501760633   1.2122817515   0.1358245689
 C   1.3080702589  -0.0837639642   0.0149882061
 H  -1.1779044148  -0.6845949890   1.3422238422
 H  -1.9171830426  -1.2185185733  -0.1728895996
 H  -1.1185283608   0.8198827148  -1.3290800421
 H  -1.7508658375   1.4405614957   0.2004866769
 H   0.5687338230  -2.1393226909   0.4222019121
 H   0.2576892342  -1.5607658893  -1.2136741741
 H   0.8253806255   2.0260551379  -0.4949297713
 H   0.4668053382   1.5780257839   1.1703043312
 H   1.9244647569  -0.2240646688   0.9104361001
 H   1.9991867076  -0.0329737681  -0.8340763632