15
 # iter =     0  time[fs]= 0.00000
C -0.8112157024 -0.9637017394 0.2484739279
C -1.1816415284 0.4460938840 -0.2384276029
C 0.6682009418 -1.0998182583 -0.1608320122
C 0.0535272153 1.2920605134 0.1358245689
C 1.2699332320 0.3245516759 0.0149882061
H -0.9087021834 -1.0150810072 1.3422238422
H -1.4468064785 -1.7513221709 -0.1728895996
H -1.3171413785 0.4341105263 -1.3290800421
H -2.1103303475 0.8290080990 0.2004866769
H 1.2019850763 -1.8588683691 0.4222019121
H 0.7273802094 -1.4047462168 -1.2136741741
H 0.1588981532 2.1819495814 -0.4949297713
H -0.0436785261 1.6450424872 1.1703043312
H 1.8995145379 0.3815941516 0.9104361001
H 1.9115290003 0.5864227506 -0.8340763632
