17
 # iter =     0  time[fs]= 0.00000
C 0.0000000000 0.3204690106 0.0037652488
C 1.2851758549 -0.5176492460 -0.0028443220
C -1.2851758549 -0.5176492460 -0.0028443220
C 2.5607066190 0.3332478355 0.0005044556
C -2.5607066190 0.3332478355 0.0005044556
H 0.0000000000 0.9750223616 0.8890585339
H 0.0000000000 0.9906142156 -0.8696749688
H 1.2866622567 -1.1853512968 0.8710760056
H -1.2866622567 -1.1853512968 0.8710760056
H 1.2837214486 -1.1730303954 -0.8862925105
H -1.2837214486 -1.1730303954 -0.8862925105
H 2.6036546835 0.9875606059 -0.8795139746
H -2.6036546835 0.9875606059 -0.8795139746
H 2.6067826876 0.9734949720 0.8907190196
H -2.6067826876 0.9734949720 0.8907190196
H 3.4622288888 -0.2913252692 -0.0052230806
H -3.4622288888 -0.2913252692 -0.0052230806
