    17
 # iter =     0  time[fs]= 0.00000
 C  -0.0037652488   0.3204690106   0.0000000000
 C   0.0028443220  -0.5176492460   1.2851758549
 C   0.0028443220  -0.5176492460  -1.2851758549
 C  -0.0005044556   0.3332478355   2.5607066190
 C  -0.0005044556   0.3332478355  -2.5607066190
 H  -0.8890585339   0.9750223616   0.0000000000
 H   0.8696749688   0.9906142156   0.0000000000
 H  -0.8710760056  -1.1853512968   1.2866622567
 H  -0.8710760056  -1.1853512968  -1.2866622567
 H   0.8862925105  -1.1730303954   1.2837214486
 H   0.8862925105  -1.1730303954  -1.2837214486
 H   0.8795139746   0.9875606059   2.6036546835
 H   0.8795139746   0.9875606059  -2.6036546835
 H  -0.8907190196   0.9734949720   2.6067826876
 H  -0.8907190196   0.9734949720  -2.6067826876
 H   0.0052230806  -0.2913252692   3.4622288888
 H   0.0052230806  -0.2913252692  -3.4622288888 