    11
 # iter =     0  time[fs]= 0.00000
   N -0.668466338E+00 -0.116463086E+01  0.250000000E+01
   N  0.668466338E+00 -0.116463086E+01  0.250000000E+01
   C -0.692277627E+00  0.124916000E+01  0.250000000E+01
   C  0.692277627E+00  0.124916000E+01  0.250000000E+01
   C -0.132315667E+01  0.433975300E-03  0.250000000E+01
   C  0.132315667E+01  0.433975300E-03  0.250000000E+01
   H -0.127180384E+01  0.216832769E+01  0.250000000E+01
   H  0.127180384E+01  0.216832769E+01  0.250000000E+01
   H -0.240769469E+01 -0.832907948E-01  0.250000000E+01
   H  0.240769469E+01 -0.832907948E-01  0.250000000E+01
  Xx  0.000000000E+00  0.000000000E+00  0.200000000E+02
    11
 # iter =   250  time[fs]= 0.25000
   N -0.668478982E+00 -0.116465082E+01  0.249999715E+01
   N  0.668478982E+00 -0.116465082E+01  0.249999715E+01
   C -0.692272421E+00  0.124913979E+01  0.249999642E+01
   C  0.692272421E+00  0.124913979E+01  0.249999642E+01
   C -0.132312992E+01  0.428850695E-03  0.249999618E+01
   C  0.132312992E+01  0.428850695E-03  0.249999618E+01
   H -0.127181239E+01  0.216833495E+01  0.249997160E+01
   H  0.127181239E+01  0.216833495E+01  0.249997160E+01
   H -0.240778679E+01 -0.832963358E-01  0.249997130E+01
   H  0.240778679E+01 -0.832963358E-01  0.249997130E+01
  Xx -0.156515813E-19 -0.112924396E-05  0.835704176E+01
    11
 # iter =   500  time[fs]= 0.50000
   N -0.668656036E+00 -0.116495582E+01  0.250001285E+01
   N  0.668656036E+00 -0.116495582E+01  0.250001285E+01
   C -0.692358677E+00  0.124927188E+01  0.249999884E+01
   C  0.692358677E+00  0.124927188E+01  0.249999884E+01
   C -0.132332259E+01  0.429826060E-03  0.249999252E+01
   C  0.132332259E+01  0.429826060E-03  0.249999252E+01
   H -0.127223289E+01  0.216898938E+01  0.249993436E+01
   H  0.127223289E+01  0.216898938E+01  0.249993436E+01
   H -0.240884511E+01 -0.833643989E-01  0.249993744E+01
   H  0.240884511E+01 -0.833643989E-01  0.249993744E+01
  Xx  0.300449933E-18  0.864201498E-04 -0.328408424E+01
    11
 # iter =   750  time[fs]= 0.75000
   N -0.669325932E+00 -0.116596397E+01  0.250005320E+01
   N  0.669325932E+00 -0.116596397E+01  0.250005320E+01
   C -0.692650982E+00  0.124970480E+01  0.250002185E+01
   C  0.692650982E+00  0.124970480E+01  0.250002185E+01
   C -0.132398511E+01  0.551056967E-03  0.250000105E+01
   C  0.132398511E+01  0.551056967E-03  0.250000105E+01
   H -0.127482619E+01  0.217305275E+01  0.249968534E+01
   H  0.127482619E+01  0.217305275E+01  0.249968534E+01
   H -0.241427871E+01 -0.837572003E-01  0.249973513E+01
   H  0.241427871E+01 -0.837572003E-01  0.249973513E+01
  Xx  0.859178682E-18  0.265273809E-03 -0.149254333E+02
    11
 # iter =  1000  time[fs]= 1.00000
   N -0.670550476E+00 -0.116764093E+01  0.250009709E+01
   N  0.670550476E+00 -0.116764093E+01  0.250009709E+01
   C -0.693127482E+00  0.125044801E+01  0.250009169E+01
   C  0.693127482E+00  0.125044801E+01  0.250009169E+01
   C -0.132505415E+01  0.776914991E-03  0.250000501E+01
   C  0.132505415E+01  0.776914991E-03  0.250000501E+01
   H -0.127962884E+01  0.218075686E+01  0.249922990E+01
   H  0.127962884E+01  0.218075686E+01  0.249922990E+01
   H -0.242474357E+01 -0.845277756E-01  0.249939690E+01
   H  0.242474357E+01 -0.845277756E-01  0.249939690E+01
  Xx  0.139660861E-17  0.438265909E-03 -0.265669199E+02
    11
 # iter =  1250  time[fs]= 1.25000
   N -0.672161216E+00 -0.116999820E+01  0.250011466E+01
   N  0.672161216E+00 -0.116999820E+01  0.250011466E+01
   C -0.693800723E+00  0.125143757E+01  0.250020145E+01
   C  0.693800723E+00  0.125143757E+01  0.250020145E+01
   C -0.132650924E+01  0.109804257E-02  0.250003655E+01
   C  0.132650924E+01  0.109804257E-02  0.250003655E+01
   H -0.128686349E+01  0.219240260E+01  0.249851197E+01
   H  0.128686349E+01  0.219240260E+01  0.249851197E+01
   H -0.244043314E+01 -0.855355500E-01  0.249901100E+01
   H  0.244043314E+01 -0.855355500E-01  0.249901100E+01
  Xx  0.193390226E-17  0.610972984E-03 -0.382084796E+02
    11
 # iter =  1500  time[fs]= 1.50000
   N -0.674183666E+00 -0.117301168E+01  0.250010838E+01
   N  0.674183666E+00 -0.117301168E+01  0.250010838E+01
   C -0.694705253E+00  0.125270104E+01  0.250034642E+01
   C  0.694705253E+00  0.125270104E+01  0.250034642E+01
   C -0.132835411E+01  0.155310612E-02  0.250007499E+01
   C  0.132835411E+01  0.155310612E-02  0.250007499E+01
   H -0.129641137E+01  0.220768524E+01  0.249739400E+01
   H  0.129641137E+01  0.220768524E+01  0.249739400E+01
   H -0.246087542E+01 -0.869877826E-01  0.249842205E+01
   H  0.246087542E+01 -0.869877826E-01  0.249842205E+01
  Xx  0.247114801E-17  0.783592874E-03 -0.498500768E+02
    11
 # iter =  1750  time[fs]= 1.75000
   N -0.676589644E+00 -0.117667068E+01  0.250011689E+01
   N  0.676589644E+00 -0.117667068E+01  0.250011689E+01
   C -0.695840635E+00  0.125434142E+01  0.250051490E+01
   C  0.695840635E+00  0.125434142E+01  0.250051490E+01
   C -0.133058225E+01  0.198820510E-02  0.250010619E+01
   C  0.133058225E+01  0.198820510E-02  0.250010619E+01
   H -0.130794608E+01  0.222621239E+01  0.249615720E+01
   H  0.130794608E+01  0.222621239E+01  0.249615720E+01
   H -0.248583045E+01 -0.886581867E-01  0.249788339E+01
   H  0.248583045E+01 -0.886581867E-01  0.249788339E+01
  Xx  0.300834041E-17  0.956166015E-03 -0.614916944E+02
    11
 # iter =  2000  time[fs]= 2.00000
   N -0.679381986E+00 -0.118098629E+01  0.250012399E+01
   N  0.679381986E+00 -0.118098629E+01  0.250012399E+01
   C -0.697225475E+00  0.125629185E+01  0.250061819E+01
   C  0.697225475E+00  0.125629185E+01  0.250061819E+01
   C -0.133317145E+01  0.254037829E-02  0.250017687E+01
   C  0.133317145E+01  0.254037829E-02  0.250017687E+01
   H -0.132135333E+01  0.224782965E+01  0.249499184E+01
   H  0.132135333E+01  0.224782965E+01  0.249499184E+01
   H -0.251525010E+01 -0.907057713E-01  0.249750477E+01
   H  0.251525010E+01 -0.907057713E-01  0.249750477E+01
  Xx  0.354550653E-17  0.112871713E-02 -0.731333243E+02
    11
 # iter =  2250  time[fs]= 2.25000
   N -0.682589644E+00 -0.118591390E+01  0.250012459E+01
   N  0.682589644E+00 -0.118591390E+01  0.250012459E+01
   C -0.698897330E+00  0.125855254E+01  0.250072540E+01
   C  0.698897330E+00  0.125855254E+01  0.250072540E+01
   C -0.133622532E+01  0.317358210E-02  0.250025105E+01
   C  0.133622532E+01  0.317358210E-02  0.250025105E+01
   H -0.133654215E+01  0.227223590E+01  0.249392249E+01
   H  0.133654215E+01  0.227223590E+01  0.249392249E+01
   H -0.254830201E+01 -0.929940002E-01  0.249722599E+01
   H  0.254830201E+01 -0.929940002E-01  0.249722599E+01
  Xx  0.408270123E-17  0.130125501E-02 -0.847749547E+02
    11
 # iter =  2500  time[fs]= 2.50000
   N -0.686233243E+00 -0.119147561E+01  0.250010034E+01
   N  0.686233243E+00 -0.119147561E+01  0.250010034E+01
   C -0.700817030E+00  0.126121002E+01  0.250082196E+01
   C  0.700817030E+00  0.126121002E+01  0.250082196E+01
   C -0.133976127E+01  0.384897450E-02  0.250033354E+01
   C  0.133976127E+01  0.384897450E-02  0.250033354E+01
   H -0.135330602E+01  0.229896468E+01  0.249293008E+01
   H  0.135330602E+01  0.229896468E+01  0.249293008E+01
   H -0.258451304E+01 -0.954863680E-01  0.249688981E+01
   H  0.258451304E+01 -0.954863680E-01  0.249688981E+01
  Xx  0.461992212E-17  0.147378381E-02 -0.964165850E+02
    11
 # iter =  2750  time[fs]= 2.75000
   N -0.690249669E+00 -0.119767676E+01  0.250008025E+01
   N  0.690249669E+00 -0.119767676E+01  0.250008025E+01
   C -0.703012191E+00  0.126428043E+01  0.250088268E+01
   C  0.703012191E+00  0.126428043E+01  0.250088268E+01
   C -0.134382034E+01  0.460923806E-02  0.250046558E+01
   C  0.134382034E+01  0.460923806E-02  0.250046558E+01
   H -0.137141621E+01  0.232760193E+01  0.249202671E+01
   H  0.137141621E+01  0.232760193E+01  0.249202671E+01
   H -0.262348773E+01 -0.981186937E-01  0.249651497E+01
   H  0.262348773E+01 -0.981186937E-01  0.249651497E+01
  Xx  0.515712727E-17  0.164630595E-02 -0.108058215E+03
    11
 # iter =  3000  time[fs]= 3.00000
   N -0.694709050E+00 -0.120444453E+01  0.250005788E+01
   N  0.694709050E+00 -0.120444453E+01  0.250005788E+01
   C -0.705473794E+00  0.126779686E+01  0.250092743E+01
   C  0.705473794E+00  0.126779686E+01  0.250092743E+01
   C -0.134842034E+01  0.530868246E-02  0.250059007E+01
   C  0.134842034E+01  0.530868246E-02  0.250059007E+01
   H -0.139068876E+01  0.235808739E+01  0.249136089E+01
   H  0.139068876E+01  0.235808739E+01  0.249136089E+01
   H -0.266477323E+01 -0.100904293E+00  0.249614182E+01
   H  0.266477323E+01 -0.100904293E+00  0.249614182E+01
  Xx  0.569432238E-17  0.181882249E-02 -0.119699846E+03
    11
 # iter =  3250  time[fs]= 3.25000
   N -0.699669402E+00 -0.121176068E+01  0.250004628E+01
   N  0.699669402E+00 -0.121176068E+01  0.250004628E+01
   C -0.708056626E+00  0.127172163E+01  0.250096209E+01
   C  0.708056626E+00  0.127172163E+01  0.250096209E+01
   C -0.135353137E+01  0.593141887E-02  0.250071571E+01
   C  0.135353137E+01  0.593141887E-02  0.250071571E+01
   H -0.141130252E+01  0.239075728E+01  0.249073694E+01
   H  0.141130252E+01  0.239075728E+01  0.249073694E+01
   H -0.270796273E+01 -0.103873833E+00  0.249550993E+01
   H  0.270796273E+01 -0.103873833E+00  0.249550993E+01
  Xx  0.623150866E-17  0.199133498E-02 -0.131341476E+03
    11
 # iter =  3500  time[fs]= 3.50000
   N -0.705011271E+00 -0.121961034E+01  0.250001395E+01
   N  0.705011271E+00 -0.121961034E+01  0.250001395E+01
   C -0.710892736E+00  0.127601301E+01  0.250099462E+01
   C  0.710892736E+00  0.127601301E+01  0.250099462E+01
   C -0.135915625E+01  0.656367919E-02  0.250087690E+01
   C  0.135915625E+01  0.656367919E-02  0.250087690E+01
   H -0.143309588E+01  0.242534716E+01  0.249022277E+01
   H  0.143309588E+01  0.242534716E+01  0.249022277E+01
   H -0.275281193E+01 -0.106955197E+00  0.249484787E+01
   H  0.275281193E+01 -0.106955197E+00  0.249484787E+01
  Xx  0.676869160E-17  0.216384425E-02 -0.142983106E+03
    11
 # iter =  3750  time[fs]= 3.75000
   N -0.710735132E+00 -0.122795802E+01  0.249999060E+01
   N  0.710735132E+00 -0.122795802E+01  0.249999060E+01
   C -0.713872634E+00  0.128072208E+01  0.250101746E+01
   C  0.713872634E+00  0.128072208E+01  0.250101746E+01
   C -0.136530678E+01  0.716189788E-02  0.250102575E+01
   C  0.136530678E+01  0.716189788E-02  0.250102575E+01
   H -0.145580957E+01  0.246144445E+01  0.248976583E+01
   H  0.145580957E+01  0.246144445E+01  0.248976583E+01
   H -0.279923148E+01 -0.110274023E+00  0.249422873E+01
   H  0.279923148E+01 -0.110274023E+00  0.249422873E+01
  Xx  0.730587904E-17  0.233635110E-02 -0.154624737E+03
    11
 # iter =  4000  time[fs]= 4.00000
   N -0.716759474E+00 -0.123679408E+01  0.249995877E+01
   N  0.716759474E+00 -0.123679408E+01  0.249995877E+01
   C -0.717139970E+00  0.128580318E+01  0.250101228E+01
   C  0.717139970E+00  0.128580318E+01  0.250101228E+01
   C -0.137199516E+01  0.777013663E-02  0.250120736E+01
   C  0.137199516E+01  0.777013663E-02  0.250120736E+01
   H -0.147939413E+01  0.249885275E+01  0.248928593E+01
   H  0.147939413E+01  0.249885275E+01  0.248928593E+01
   H -0.284676937E+01 -0.113730926E+00  0.249346484E+01
   H  0.284676937E+01 -0.113730926E+00  0.249346484E+01
  Xx  0.784307333E-17  0.250885593E-02 -0.166266367E+03
    11
 # iter =  4250  time[fs]= 4.25000
   N -0.723169971E+00 -0.124605946E+01  0.249992068E+01
   N  0.723169971E+00 -0.124605946E+01  0.249992068E+01
   C -0.720636777E+00  0.129123607E+01  0.250102332E+01
   C  0.720636777E+00  0.129123607E+01  0.250102332E+01
   C -0.137920463E+01  0.840348342E-02  0.250138512E+01
   C  0.137920463E+01  0.840348342E-02  0.250138512E+01
   H -0.150361747E+01  0.253740874E+01  0.248883090E+01
   H  0.150361747E+01  0.253740874E+01  0.248883090E+01
   H -0.289532561E+01 -0.117310835E+00  0.249263553E+01
   H  0.289532561E+01 -0.117310835E+00  0.249263553E+01
  Xx  0.838026850E-17  0.268135933E-02 -0.177907997E+03
    11
 # iter =  4500  time[fs]= 4.50000
   N -0.729963632E+00 -0.125572448E+01  0.249987779E+01
   N  0.729963632E+00 -0.125572448E+01  0.249987779E+01
   C -0.724291368E+00  0.129704793E+01  0.250100732E+01
   C  0.724291368E+00  0.129704793E+01  0.250100732E+01
   C -0.138692550E+01  0.903529933E-02  0.250159406E+01
   C  0.138692550E+01  0.903529933E-02  0.250159406E+01
   H -0.152829624E+01  0.257668673E+01  0.248830194E+01
   H  0.152829624E+01  0.257668673E+01  0.248830194E+01
   H -0.294485250E+01 -0.121028625E+00  0.249186190E+01
   H  0.294485250E+01 -0.121028625E+00  0.249186190E+01
  Xx  0.891746889E-17  0.285386166E-02 -0.189549628E+03
    11
 # iter =  4750  time[fs]= 4.75000
   N -0.737046201E+00 -0.126572346E+01  0.249978337E+01
   N  0.737046201E+00 -0.126572346E+01  0.249978337E+01
   C -0.728227336E+00  0.130321542E+01  0.250099839E+01
   C  0.728227336E+00  0.130321542E+01  0.250099839E+01
   C -0.139513912E+01  0.965502522E-02  0.250183932E+01
   C  0.139513912E+01  0.965502522E-02  0.250183932E+01
   H -0.155335900E+01  0.261663933E+01  0.248787270E+01
   H  0.155335900E+01  0.261663933E+01  0.248787270E+01
   H -0.299522002E+01 -0.124872033E+00  0.249116458E+01
   H  0.299522002E+01 -0.124872033E+00  0.249116458E+01
  Xx  0.945466971E-17  0.302636290E-02 -0.201191258E+03
    11
 # iter =  5000  time[fs]= 5.00000
   N -0.744380206E+00 -0.127598421E+01  0.249971576E+01
   N  0.744380206E+00 -0.127598421E+01  0.249971576E+01
   C -0.732392554E+00  0.130974067E+01  0.250100723E+01
   C  0.732392554E+00  0.130974067E+01  0.250100723E+01
   C -0.140383462E+01  0.101976395E-01  0.250205463E+01
   C  0.140383462E+01  0.101976395E-01  0.250205463E+01
   H -0.157888167E+01  0.265719775E+01  0.248729703E+01
   H  0.157888167E+01  0.265719775E+01  0.248729703E+01
   H -0.304669001E+01 -0.128920643E+00  0.249043096E+01
   H  0.304669001E+01 -0.128920643E+00  0.249043096E+01
  Xx  0.999186803E-17  0.319886306E-02 -0.212832888E+03
    11
 # iter =  5250  time[fs]= 5.25000
   N -0.751964415E+00 -0.128651759E+01  0.249964160E+01
   N  0.751964415E+00 -0.128651759E+01  0.249964160E+01
   C -0.736700921E+00  0.131659769E+01  0.250102421E+01
   C  0.736700921E+00  0.131659769E+01  0.250102421E+01
   C -0.141295685E+01  0.106749713E-01  0.250225839E+01
   C  0.141295685E+01  0.106749713E-01  0.250225839E+01
   H -0.160489250E+01  0.269846921E+01  0.248667956E+01
   H  0.160489250E+01  0.269846921E+01  0.248667956E+01
   H -0.309917228E+01 -0.133095385E+00  0.248977106E+01
   H  0.309917228E+01 -0.133095385E+00  0.248977106E+01
  Xx  0.105290609E-16  0.337136213E-02 -0.224474519E+03
    11
 # iter =  5500  time[fs]= 5.50000
   N -0.759813211E+00 -0.129727033E+01  0.249955905E+01
   N  0.759813211E+00 -0.129727033E+01  0.249955905E+01
   C -0.741157790E+00  0.132373358E+01  0.250102904E+01
   C  0.741157790E+00  0.132373358E+01  0.250102904E+01
   C -0.142251070E+01  0.111125416E-01  0.250247002E+01
   C  0.142251070E+01  0.111125416E-01  0.250247002E+01
   H -0.163152934E+01  0.274058313E+01  0.248603407E+01
   H  0.163152934E+01  0.274058313E+01  0.248603407E+01
   H -0.315249889E+01 -0.137469052E+00  0.248908362E+01
   H  0.315249889E+01 -0.137469052E+00  0.248908362E+01
  Xx  0.110662513E-16  0.354386012E-02 -0.236116149E+03
    11
 # iter =  5750  time[fs]= 5.75000
   N -0.767951763E+00 -0.130821173E+01  0.249946729E+01
   N  0.767951763E+00 -0.130821173E+01  0.249946729E+01
   C -0.745725718E+00  0.133112840E+01  0.250104305E+01
   C  0.745725718E+00  0.133112840E+01  0.250104305E+01
   C -0.143244775E+01  0.115257704E-01  0.250270801E+01
   C  0.143244775E+01  0.115257704E-01  0.250270801E+01
   H -0.165866649E+01  0.278359051E+01  0.248526981E+01
   H  0.165866649E+01  0.278359051E+01  0.248526981E+01
   H -0.320669124E+01 -0.141966955E+00  0.248848059E+01
   H  0.320669124E+01 -0.141966955E+00  0.248848059E+01
  Xx  0.116034431E-16  0.371635702E-02 -0.247757780E+03
    11
 # iter =  6000  time[fs]= 6.00000
   N -0.776288656E+00 -0.131934482E+01  0.249937509E+01
   N  0.776288656E+00 -0.131934482E+01  0.249937509E+01
   C -0.750409644E+00  0.133880855E+01  0.250106126E+01
   C  0.750409644E+00  0.133880855E+01  0.250106126E+01
   C -0.144275069E+01  0.118755190E-01  0.250293214E+01
   C  0.144275069E+01  0.118755190E-01  0.250293214E+01
   H -0.168630514E+01  0.282720109E+01  0.248453959E+01
   H  0.168630514E+01  0.282720109E+01  0.248453959E+01
   H -0.326184609E+01 -0.146656146E+00  0.248793058E+01
   H  0.326184609E+01 -0.146656146E+00  0.248793058E+01
  Xx  0.121406349E-16  0.388885307E-02 -0.259399410E+03
    11
 # iter =  6250  time[fs]= 6.25000
   N -0.784821277E+00 -0.133062883E+01  0.249929116E+01
   N  0.784821277E+00 -0.133062883E+01  0.249929116E+01
   C -0.755301795E+00  0.134670786E+01  0.250106344E+01
   C  0.755301795E+00  0.134670786E+01  0.250106344E+01
   C -0.145343634E+01  0.122111227E-01  0.250317807E+01
   C  0.145343634E+01  0.122111227E-01  0.250317807E+01
   H -0.171424324E+01  0.287129812E+01  0.248365865E+01
   H  0.171424324E+01  0.287129812E+01  0.248365865E+01
   H -0.331791499E+01 -0.151600065E+00  0.248745788E+01
   H  0.331791499E+01 -0.151600065E+00  0.248745788E+01
  Xx  0.126778287E-16  0.406134884E-02 -0.271041040E+03
    11
 # iter =  6500  time[fs]= 6.50000
   N -0.793534811E+00 -0.134204266E+01  0.249919627E+01
   N  0.793534811E+00 -0.134204266E+01  0.249919627E+01
   C -0.760384257E+00  0.135483399E+01  0.250109484E+01
   C  0.760384257E+00  0.135483399E+01  0.250109484E+01
   C -0.146446779E+01  0.125417549E-01  0.250339132E+01
   C  0.146446779E+01  0.125417549E-01  0.250339132E+01
   H -0.174246570E+01  0.291582216E+01  0.248278107E+01
   H  0.174246570E+01  0.291582216E+01  0.248278107E+01
   H -0.337489151E+01 -0.156803777E+00  0.248697518E+01
   H  0.337489151E+01 -0.156803777E+00  0.248697518E+01
  Xx  0.132150235E-16  0.423384461E-02 -0.282682671E+03
    11
 # iter =  6750  time[fs]= 6.75000
   N -0.802336368E+00 -0.135363201E+01  0.249912271E+01
   N  0.802336368E+00 -0.135363201E+01  0.249912271E+01
   C -0.765611435E+00  0.136317784E+01  0.250111745E+01
   C  0.765611435E+00  0.136317784E+01  0.250111745E+01
   C -0.147583986E+01  0.128781140E-01  0.250359635E+01
   C  0.147583986E+01  0.128781140E-01  0.250359635E+01
   H -0.177102585E+01  0.296084433E+01  0.248182653E+01
   H  0.177102585E+01  0.296084433E+01  0.248182653E+01
   H -0.343269555E+01 -0.162238815E+00  0.248648377E+01
   H  0.343269555E+01 -0.162238815E+00  0.248648377E+01
  Xx  0.137522183E-16  0.440634038E-02 -0.294324301E+03
    11
 # iter =  7000  time[fs]= 7.00000
   N -0.811251301E+00 -0.136535711E+01  0.249905678E+01
   N  0.811251301E+00 -0.136535711E+01  0.249905678E+01
   C -0.770907034E+00  0.137175760E+01  0.250117629E+01
   C  0.770907034E+00  0.137175760E+01  0.250117629E+01
   C -0.148748987E+01  0.131512733E-01  0.250377626E+01
   C  0.148748987E+01  0.131512733E-01  0.250377626E+01
   H -0.179994359E+01  0.300640270E+01  0.248083943E+01
   H  0.179994359E+01  0.300640270E+01  0.248083943E+01
   H -0.349141036E+01 -0.167873729E+00  0.248606010E+01
   H  0.349141036E+01 -0.167873729E+00  0.248606010E+01
  Xx  0.142894124E-16  0.457883615E-02 -0.305965931E+03
    11
 # iter =  7250  time[fs]= 7.25000
   N -0.820324655E+00 -0.137720150E+01  0.249901653E+01
   N  0.820324655E+00 -0.137720150E+01  0.249901653E+01
   C -0.776282005E+00  0.138043691E+01  0.250125693E+01
   C  0.776282005E+00  0.138043691E+01  0.250125693E+01
   C -0.149939274E+01  0.133840569E-01  0.250391498E+01
   C  0.149939274E+01  0.133840569E-01  0.250391498E+01
   H -0.182934860E+01  0.305263942E+01  0.247978786E+01
   H  0.182934860E+01  0.305263942E+01  0.247978786E+01
   H -0.355100413E+01 -0.173692732E+00  0.248564030E+01
   H  0.355100413E+01 -0.173692732E+00  0.248564030E+01
  Xx  0.148266048E-16  0.475133192E-02 -0.317607562E+03
    11
 # iter =  7500  time[fs]= 7.50000
   N -0.829519230E+00 -0.138920261E+01  0.249896575E+01
   N  0.829519230E+00 -0.138920261E+01  0.249896575E+01
   C -0.781745886E+00  0.138928467E+01  0.250132834E+01
   C  0.781745886E+00  0.138928467E+01  0.250132834E+01
   C -0.151153390E+01  0.136225479E-01  0.250407469E+01
   C  0.151153390E+01  0.136225479E-01  0.250407469E+01
   H -0.185911941E+01  0.309946481E+01  0.247876140E+01
   H  0.185911941E+01  0.309946481E+01  0.247876140E+01
   H -0.361149649E+01 -0.179735097E+00  0.248517351E+01
   H  0.361149649E+01 -0.179735097E+00  0.248517351E+01
  Xx  0.153637957E-16  0.492382769E-02 -0.329249192E+03
    11
 # iter =  7750  time[fs]= 7.75000
   N -0.838763305E+00 -0.140139056E+01  0.249891689E+01
   N  0.838763305E+00 -0.140139056E+01  0.249891689E+01
   C -0.787256401E+00  0.139826342E+01  0.250141148E+01
   C  0.787256401E+00  0.139826342E+01  0.250141148E+01
   C -0.152389662E+01  0.138092333E-01  0.250423137E+01
   C  0.152389662E+01  0.138092333E-01  0.250423137E+01
   H -0.188937855E+01  0.314698321E+01  0.247773903E+01
   H  0.188937855E+01  0.314698321E+01  0.247773903E+01
   H -0.367293848E+01 -0.186008801E+00  0.248469901E+01
   H  0.367293848E+01 -0.186008801E+00  0.248469901E+01
  Xx  0.159009858E-16  0.509632346E-02 -0.340890822E+03
    11
 # iter =  8000  time[fs]= 8.00000
   N -0.848061202E+00 -0.141371704E+01  0.249883895E+01
   N  0.848061202E+00 -0.141371704E+01  0.249883895E+01
   C -0.792814078E+00  0.140744253E+01  0.250146055E+01
   C  0.792814078E+00  0.140744253E+01  0.250146055E+01
   C -0.153650983E+01  0.139479228E-01  0.250444255E+01
   C  0.153650983E+01  0.139479228E-01  0.250444255E+01
   H -0.191994806E+01  0.319507889E+01  0.247667749E+01
   H  0.191994806E+01  0.319507889E+01  0.247667749E+01
   H -0.373529980E+01 -0.192511596E+00  0.248420770E+01
   H  0.373529980E+01 -0.192511596E+00  0.248420770E+01
  Xx  0.164381754E-16  0.526881923E-02 -0.352532453E+03
    11
 # iter =  8250  time[fs]= 8.25000
   N -0.857417072E+00 -0.142619445E+01  0.249875898E+01
   N  0.857417072E+00 -0.142619445E+01  0.249875898E+01
   C -0.798392097E+00  0.141677370E+01  0.250150523E+01
   C  0.798392097E+00  0.141677370E+01  0.250150523E+01
   C -0.154929867E+01  0.139716015E-01  0.250463725E+01
   C  0.154929867E+01  0.139716015E-01  0.250463725E+01
   H -0.195099523E+01  0.324384629E+01  0.247554576E+01
   H  0.195099523E+01  0.324384629E+01  0.247554576E+01
   H -0.379863174E+01 -0.199220550E+00  0.248367944E+01
   H  0.379863174E+01 -0.199220550E+00  0.248367944E+01
  Xx  0.169753642E-16  0.544131500E-02 -0.364174083E+03
    11
 # iter =  8500  time[fs]= 8.50000
   N -0.866868112E+00 -0.143882069E+01  0.249867872E+01
   N  0.866868112E+00 -0.143882069E+01  0.249867872E+01
   C -0.803973447E+00  0.142624933E+01  0.250155436E+01
   C  0.803973447E+00  0.142624933E+01  0.250155436E+01
   C -0.156226868E+01  0.139688352E-01  0.250484036E+01
   C  0.156226868E+01  0.139688352E-01  0.250484036E+01
   H -0.198238305E+01  0.329324518E+01  0.247438041E+01
   H  0.198238305E+01  0.329324518E+01  0.247438041E+01
   H -0.386287184E+01 -0.206141822E+00  0.248310779E+01
   H  0.386287184E+01 -0.206141822E+00  0.248310779E+01
  Xx  0.175125514E-16  0.561381077E-02 -0.375815713E+03
    11
 # iter =  8750  time[fs]= 8.75000
   N -0.876397593E+00 -0.145162438E+01  0.249862682E+01
   N  0.876397593E+00 -0.145162438E+01  0.249862682E+01
   C -0.809541444E+00  0.143579908E+01  0.250160613E+01
   C  0.809541444E+00  0.143579908E+01  0.250160613E+01
   C -0.157540813E+01  0.138963219E-01  0.250502877E+01
   C  0.157540813E+01  0.138963219E-01  0.250502877E+01
   H -0.201427288E+01  0.334343334E+01  0.247320927E+01
   H  0.201427288E+01  0.334343334E+01  0.247320927E+01
   H -0.392810403E+01 -0.213312324E+00  0.248253349E+01
   H  0.392810403E+01 -0.213312324E+00  0.248253349E+01
  Xx  0.180497382E-16  0.578630653E-02 -0.387457344E+03
    11
 # iter =  9000  time[fs]= 9.00000
   N -0.886051921E+00 -0.146451772E+01  0.249857793E+01
   N  0.886051921E+00 -0.146451772E+01  0.249857793E+01
   C -0.815175438E+00  0.144543055E+01  0.250167631E+01
   C  0.815175438E+00  0.144543055E+01  0.250167631E+01
   C -0.158862499E+01  0.137833750E-01  0.250520451E+01
   C  0.158862499E+01  0.137833750E-01  0.250520451E+01
   H -0.204655974E+01  0.339427045E+01  0.247203651E+01
   H  0.204655974E+01  0.339427045E+01  0.247203651E+01
   H -0.399443919E+01 -0.220738157E+00  0.248197876E+01
   H  0.399443919E+01 -0.220738157E+00  0.248197876E+01
  Xx  0.185869249E-16  0.595880230E-02 -0.399098974E+03
    11
 # iter =  9250  time[fs]= 9.25000
   N -0.895839393E+00 -0.147749505E+01  0.249855158E+01
   N  0.895839393E+00 -0.147749505E+01  0.249855158E+01
   C -0.820794441E+00  0.145519036E+01  0.250174310E+01
   C  0.820794441E+00  0.145519036E+01  0.250174310E+01
   C -0.160196962E+01  0.135786867E-01  0.250536764E+01
   C  0.160196962E+01  0.135786867E-01  0.250536764E+01
   H -0.207928972E+01  0.344570868E+01  0.247085824E+01
   H  0.207928972E+01  0.344570868E+01  0.247085824E+01
   H -0.406185829E+01 -0.228458443E+00  0.248139062E+01
   H  0.406185829E+01 -0.228458443E+00  0.248139062E+01
  Xx  0.191241115E-16  0.613129807E-02 -0.410740604E+03
    11
 # iter =  9500  time[fs]= 9.50000
   N -0.905721725E+00 -0.149055906E+01  0.249851519E+01
   N  0.905721725E+00 -0.149055906E+01  0.249851519E+01
   C -0.826380561E+00  0.146500966E+01  0.250183897E+01
   C  0.826380561E+00  0.146500966E+01  0.250183897E+01
   C -0.161546361E+01  0.132918305E-01  0.250553294E+01
   C  0.161546361E+01  0.132918305E-01  0.250553294E+01
   H -0.211253679E+01  0.349796345E+01  0.246968525E+01
   H  0.211253679E+01  0.349796345E+01  0.246968525E+01
   H -0.413028506E+01 -0.236393740E+00  0.248080703E+01
   H  0.413028506E+01 -0.236393740E+00  0.248080703E+01
  Xx  0.196612979E-16  0.630379384E-02 -0.422382235E+03
    11
 # iter =  9750  time[fs]= 9.75000
   N -0.915739338E+00 -0.150365275E+01  0.249849139E+01
   N  0.915739338E+00 -0.150365275E+01  0.249849139E+01
   C -0.831905654E+00  0.147494297E+01  0.250191936E+01
   C  0.831905654E+00  0.147494297E+01  0.250191936E+01
   C -0.162908064E+01  0.128970222E-01  0.250568064E+01
   C  0.162908064E+01  0.128970222E-01  0.250568064E+01
   H -0.214618487E+01  0.355089758E+01  0.246851217E+01
   H  0.214618487E+01  0.355089758E+01  0.246851217E+01
   H -0.419980507E+01 -0.244594007E+00  0.248015258E+01
   H  0.419980507E+01 -0.244594007E+00  0.248015258E+01
  Xx  0.201984839E-16  0.647628961E-02 -0.434023865E+03
    11
 # iter = 10000  time[fs]=10.00000
   N -0.925914100E+00 -0.151675290E+01  0.249842244E+01
   N  0.925914100E+00 -0.151675290E+01  0.249842244E+01
   C -0.837380265E+00  0.148494945E+01  0.250201989E+01
   C  0.837380265E+00  0.148494945E+01  0.250201989E+01
   C -0.164276428E+01  0.123956156E-01  0.250585140E+01
   C  0.164276428E+01  0.123956156E-01  0.250585140E+01
   H -0.218027349E+01  0.360454814E+01  0.246732671E+01
   H  0.218027349E+01  0.360454814E+01  0.246732671E+01
   H -0.427043892E+01 -0.253032198E+00  0.247951146E+01
   H  0.427043892E+01 -0.253032198E+00  0.247951146E+01
  Xx  0.207356697E-16  0.664878538E-02 -0.445665495E+03
    11
 # iter = 10250  time[fs]=10.25000
   N -0.936142529E+00 -0.152985241E+01  0.249838225E+01
   N  0.936142529E+00 -0.152985241E+01  0.249838225E+01
   C -0.842905680E+00  0.149502916E+01  0.250212269E+01
   C  0.842905680E+00  0.149502916E+01  0.250212269E+01
   C -0.165651454E+01  0.117599366E-01  0.250599787E+01
   C  0.165651454E+01  0.117599366E-01  0.250599787E+01
   H -0.221485961E+01  0.365896720E+01  0.246615041E+01
   H  0.221485961E+01  0.365896720E+01  0.246615041E+01
   H -0.434217282E+01 -0.261716121E+00  0.247888579E+01
   H  0.434217282E+01 -0.261716121E+00  0.247888579E+01
  Xx  0.212728556E-16  0.682128115E-02 -0.457307126E+03
    11
 # iter = 10500  time[fs]=10.50000
   N -0.946444979E+00 -0.154290938E+01  0.249835634E+01
   N  0.946444979E+00 -0.154290938E+01  0.249835634E+01
   C -0.848425552E+00  0.150515984E+01  0.250221018E+01
   C  0.848425552E+00  0.150515984E+01  0.250221018E+01
   C -0.167035469E+01  0.110439949E-01  0.250614239E+01
   C  0.167035469E+01  0.110439949E-01  0.250614239E+01
   H -0.224984773E+01  0.371408754E+01  0.246494110E+01
   H  0.224984773E+01  0.371408754E+01  0.246494110E+01
   H -0.441488350E+01 -0.270635873E+00  0.247827012E+01
   H  0.441488350E+01 -0.270635873E+00  0.247827012E+01
  Xx  0.218100414E-16  0.699377692E-02 -0.468948756E+03
    11
 # iter = 10750  time[fs]=10.75000
   N -0.956806706E+00 -0.155589722E+01  0.249833377E+01
   N  0.956806706E+00 -0.155589722E+01  0.249833377E+01
   C -0.853891450E+00  0.151536641E+01  0.250229925E+01
   C  0.853891450E+00  0.151536641E+01  0.250229925E+01
   C -0.168427044E+01  0.102038643E-01  0.250626435E+01
   C  0.168427044E+01  0.102038643E-01  0.250626435E+01
   H -0.228537767E+01  0.376998501E+01  0.246371939E+01
   H  0.228537767E+01  0.376998501E+01  0.246371939E+01
   H -0.448860130E+01 -0.279750515E+00  0.247768909E+01
   H  0.448860130E+01 -0.279750515E+00  0.247768909E+01
  Xx  0.223472273E-16  0.716627269E-02 -0.480590386E+03
    11
 # iter = 11000  time[fs]=11.00000
   N -0.967250964E+00 -0.156881105E+01  0.249831366E+01
   N  0.967250964E+00 -0.156881105E+01  0.249831366E+01
   C -0.859255686E+00  0.152559306E+01  0.250238893E+01
   C  0.859255686E+00  0.152559306E+01  0.250238893E+01
   C -0.169828838E+01  0.920579402E-02  0.250641195E+01
   C  0.169828838E+01  0.920579402E-02  0.250641195E+01
   H -0.232145210E+01  0.382679351E+01  0.246247061E+01
   H  0.232145210E+01  0.382679351E+01  0.246247061E+01
   H -0.456333737E+01 -0.289186242E+00  0.247712116E+01
   H  0.456333737E+01 -0.289186242E+00  0.247712116E+01
  Xx  0.228844132E-16  0.733876846E-02 -0.492232017E+03
    11
 # iter = 11250  time[fs]=11.25000
   N -0.977817196E+00 -0.158167159E+01  0.249826029E+01
   N  0.977817196E+00 -0.158167159E+01  0.249826029E+01
   C -0.864551066E+00  0.153582885E+01  0.250243087E+01
   C  0.864551066E+00  0.153582885E+01  0.250243087E+01
   C -0.171233206E+01  0.818435000E-02  0.250663824E+01
   C  0.171233206E+01  0.818435000E-02  0.250663824E+01
   H -0.235800762E+01  0.388434587E+01  0.246121637E+01
   H  0.235800762E+01  0.388434587E+01  0.246121637E+01
   H -0.463905502E+01 -0.298856592E+00  0.247654786E+01
   H  0.463905502E+01 -0.298856592E+00  0.247654786E+01
  Xx  0.234215990E-16  0.751126423E-02 -0.503873647E+03
    11
 # iter = 11500  time[fs]=11.50000
   N -0.988423093E+00 -0.159449307E+01  0.249818631E+01
   N  0.988423093E+00 -0.159449307E+01  0.249818631E+01
   C -0.869787820E+00  0.154605940E+01  0.250247485E+01
   C  0.869787820E+00  0.154605940E+01  0.250247485E+01
   C -0.172644007E+01  0.713113472E-02  0.250686015E+01
   C  0.172644007E+01  0.713113472E-02  0.250686015E+01
   H -0.239503475E+01  0.394261741E+01  0.246002547E+01
   H  0.239503475E+01  0.394261741E+01  0.246002547E+01
   H -0.471575884E+01 -0.308761220E+00  0.247597325E+01
   H  0.471575884E+01 -0.308761220E+00  0.247597325E+01
  Xx  0.239587849E-16  0.768376000E-02 -0.515515277E+03
    11
 # iter = 11750  time[fs]=11.75000
   N -0.999069773E+00 -0.160727063E+01  0.249812117E+01
   N  0.999069773E+00 -0.160727063E+01  0.249812117E+01
   C -0.874970726E+00  0.155627332E+01  0.250254005E+01
   C  0.874970726E+00  0.155627332E+01  0.250254005E+01
   C -0.174055051E+01  0.607916421E-02  0.250706013E+01
   C  0.174055051E+01  0.607916421E-02  0.250706013E+01
   H -0.243253366E+01  0.400163856E+01  0.245880721E+01
   H  0.243253366E+01  0.400163856E+01  0.245880721E+01
   H -0.479346234E+01 -0.318869184E+00  0.247540466E+01
   H  0.479346234E+01 -0.318869184E+00  0.247540466E+01
  Xx  0.244959707E-16  0.785625576E-02 -0.527156908E+03
    11
 # iter = 12000  time[fs]=12.00000
   N -0.100976984E+01 -0.162000853E+01  0.249808277E+01
   N  0.100976984E+01 -0.162000853E+01  0.249808277E+01
   C -0.880016274E+00  0.156645228E+01  0.250262746E+01
   C  0.880016274E+00  0.156645228E+01  0.250262746E+01
   C -0.175469104E+01  0.494459187E-02  0.250722275E+01
   C  0.175469104E+01  0.494459187E-02  0.250722275E+01
   H -0.247058711E+01  0.406152130E+01  0.245757745E+01
   H  0.247058711E+01  0.406152130E+01  0.245757745E+01
   H -0.487209796E+01 -0.329280766E+00  0.247481833E+01
   H  0.487209796E+01 -0.329280766E+00  0.247481833E+01
  Xx  0.250331566E-16  0.802875153E-02 -0.538798538E+03
    11
 # iter = 12250  time[fs]=12.25000
   N -0.102054496E+01 -0.163270001E+01  0.249805114E+01
   N  0.102054496E+01 -0.163270001E+01  0.249805114E+01
   C -0.884950775E+00  0.157663619E+01  0.250270619E+01
   C  0.884950775E+00  0.157663619E+01  0.250270619E+01
   C -0.176882779E+01  0.374227323E-02  0.250736671E+01
   C  0.176882779E+01  0.374227323E-02  0.250736671E+01
   H -0.250909843E+01  0.412214114E+01  0.245633374E+01
   H  0.250909843E+01  0.412214114E+01  0.245633374E+01
   H -0.495166655E+01 -0.339900580E+00  0.247424168E+01
   H  0.495166655E+01 -0.339900580E+00  0.247424168E+01
  Xx  0.255703424E-16  0.820124730E-02 -0.550440169E+03
    11
 # iter = 12500  time[fs]=12.50000
   N -0.103130673E+01 -0.164539017E+01  0.249800952E+01
   N  0.103130673E+01 -0.164539017E+01  0.249800952E+01
   C -0.889833672E+00  0.158681807E+01  0.250275251E+01
   C  0.889833672E+00  0.158681807E+01  0.250275251E+01
   C -0.178300615E+01  0.246280047E-02  0.250756567E+01
   C  0.178300615E+01  0.246280047E-02  0.250756567E+01
   H -0.254803978E+01  0.418346382E+01  0.245509860E+01
   H  0.254803978E+01  0.418346382E+01  0.245509860E+01
   H -0.503215670E+01 -0.350756344E+00  0.247365356E+01
   H  0.503215670E+01 -0.350756344E+00  0.247365356E+01
  Xx  0.261075283E-16  0.837374307E-02 -0.562081799E+03
    11
 # iter = 12750  time[fs]=12.75000
   N -0.104207586E+01 -0.165808727E+01  0.249792971E+01
   N  0.104207586E+01 -0.165808727E+01  0.249792971E+01
   C -0.894624639E+00  0.159702075E+01  0.250279098E+01
   C  0.894624639E+00  0.159702075E+01  0.250279098E+01
   C -0.179715695E+01  0.112401879E-02  0.250781638E+01
   C  0.179715695E+01  0.112401879E-02  0.250781638E+01
   H -0.258739426E+01  0.424544835E+01  0.245387020E+01
   H  0.258739426E+01  0.424544835E+01  0.245387020E+01
   H -0.511353272E+01 -0.361804394E+00  0.247307757E+01
   H  0.511353272E+01 -0.361804394E+00  0.247307757E+01
  Xx  0.266447141E-16  0.854623884E-02 -0.573723429E+03
    11
 # iter = 13000  time[fs]=13.00000
   N -0.105277158E+01 -0.167079205E+01  0.249785583E+01
   N  0.105277158E+01 -0.167079205E+01  0.249785583E+01
   C -0.899354314E+00  0.160713229E+01  0.250282893E+01
   C  0.899354314E+00  0.160713229E+01  0.250282893E+01
   C -0.181132146E+01 -0.276146625E-03  0.250805308E+01
   C  0.181132146E+01 -0.276146625E-03  0.250805308E+01
   H -0.262725898E+01  0.430817603E+01  0.245260852E+01
   H  0.262725898E+01  0.430817603E+01  0.245260852E+01
   H -0.519573478E+01 -0.373050314E+00  0.247251604E+01
   H  0.519573478E+01 -0.373050314E+00  0.247251604E+01
  Xx  0.271819000E-16  0.871873461E-02 -0.585365060E+03
    11
 # iter = 13250  time[fs]=13.25000
   N -0.106345668E+01 -0.168350687E+01  0.249780584E+01
   N  0.106345668E+01 -0.168350687E+01  0.249780584E+01
   C -0.903957093E+00  0.161726182E+01  0.250287977E+01
   C  0.903957093E+00  0.161726182E+01  0.250287977E+01
   C -0.182549904E+01 -0.175648240E-02  0.250826878E+01
   C  0.182549904E+01 -0.175648240E-02  0.250826878E+01
   H -0.266757851E+01  0.437161630E+01  0.245133945E+01
   H  0.266757851E+01  0.437161630E+01  0.245133945E+01
   H -0.527877164E+01 -0.384539618E+00  0.247192497E+01
   H  0.527877164E+01 -0.384539618E+00  0.247192497E+01
  Xx  0.277190859E-16  0.889123038E-02 -0.597006690E+03
    11
 # iter = 13500  time[fs]=13.50000
   N -0.107409520E+01 -0.169626646E+01  0.249776241E+01
   N  0.107409520E+01 -0.169626646E+01  0.249776241E+01
   C -0.908512075E+00  0.162738818E+01  0.250294402E+01
   C  0.908512075E+00  0.162738818E+01  0.250294402E+01
   C -0.183963458E+01 -0.335003672E-02  0.250846993E+01
   C  0.183963458E+01 -0.335003672E-02  0.250846993E+01
   H -0.270837042E+01  0.443573428E+01  0.245006834E+01
   H  0.270837042E+01  0.443573428E+01  0.245006834E+01
   H -0.536261467E+01 -0.396229334E+00  0.247131500E+01
   H  0.536261467E+01 -0.396229334E+00  0.247131500E+01
  Xx  0.282562717E-16  0.906372615E-02 -0.608648320E+03
    11
 # iter = 13750  time[fs]=13.75000
   N -0.108474314E+01 -0.170901139E+01  0.249771930E+01
   N  0.108474314E+01 -0.170901139E+01  0.249771930E+01
   C -0.912960864E+00  0.163751508E+01  0.250299669E+01
   C  0.912960864E+00  0.163751508E+01  0.250299669E+01
   C -0.185375042E+01 -0.501865551E-02  0.250865741E+01
   C  0.185375042E+01 -0.501865551E-02  0.250865741E+01
   H -0.274958549E+01  0.450050969E+01  0.244876910E+01
   H  0.274958549E+01  0.450050969E+01  0.244876910E+01
   H -0.544727464E+01 -0.408108243E+00  0.247069290E+01
   H  0.544727464E+01 -0.408108243E+00  0.247069290E+01
  Xx  0.287934576E-16  0.923622192E-02 -0.620289951E+03
    11
 # iter = 14000  time[fs]=14.00000
   N -0.109536216E+01 -0.172173503E+01  0.249769496E+01
   N  0.109536216E+01 -0.172173503E+01  0.249769496E+01
   C -0.917326284E+00  0.164761976E+01  0.250304218E+01
   C  0.917326284E+00  0.164761976E+01  0.250304218E+01
   C -0.186785792E+01 -0.682168347E-02  0.250885596E+01
   C  0.186785792E+01 -0.682168347E-02  0.250885596E+01
   H -0.279123371E+01  0.456597066E+01  0.244746926E+01
   H  0.279123371E+01  0.456597066E+01  0.244746926E+01
   H -0.553266381E+01 -0.420204583E+00  0.247006563E+01
   H  0.553266381E+01 -0.420204583E+00  0.247006563E+01
  Xx  0.293306434E-16  0.940871769E-02 -0.631931581E+03
    11
 # iter = 14250  time[fs]=14.25000
   N -0.110597615E+01 -0.173442195E+01  0.249766329E+01
   N  0.110597615E+01 -0.173442195E+01  0.249766329E+01
   C -0.921613644E+00  0.165771179E+01  0.250310394E+01
   C  0.921613644E+00  0.165771179E+01  0.250310394E+01
   C -0.188192874E+01 -0.872334014E-02  0.250905689E+01
   C  0.188192874E+01 -0.872334014E-02  0.250905689E+01
   H -0.283332895E+01  0.463211179E+01  0.244615479E+01
   H  0.283332895E+01  0.463211179E+01  0.244615479E+01
   H -0.561882114E+01 -0.432488257E+00  0.246945983E+01
   H  0.561882114E+01 -0.432488257E+00  0.246945983E+01
  Xx  0.298678293E-16  0.958121346E-02 -0.643573211E+03
    11
 # iter = 14500  time[fs]=14.50000
   N -0.111656814E+01 -0.174707980E+01  0.249764437E+01
   N  0.111656814E+01 -0.174707980E+01  0.249764437E+01
   C -0.925871774E+00  0.166776032E+01  0.250316687E+01
   C  0.925871774E+00  0.166776032E+01  0.250316687E+01
   C -0.189599220E+01 -0.106929712E-01  0.250923765E+01
   C  0.189599220E+01 -0.106929712E-01  0.250923765E+01
   H -0.287581683E+01  0.469889625E+01  0.244482925E+01
   H  0.287581683E+01  0.469889625E+01  0.244482925E+01
   H -0.570566463E+01 -0.444943750E+00  0.246885306E+01
   H  0.570566463E+01 -0.444943750E+00  0.246885306E+01
  Xx  0.304050151E-16  0.975370922E-02 -0.655214842E+03
    11
 # iter = 14750  time[fs]=14.75000
   N -0.112716667E+01 -0.175968810E+01  0.249760363E+01
   N  0.112716667E+01 -0.175968810E+01  0.249760363E+01
   C -0.930055213E+00  0.167782620E+01  0.250320494E+01
   C  0.930055213E+00  0.167782620E+01  0.250320494E+01
   C -0.191002268E+01 -0.127475332E-01  0.250947944E+01
   C  0.191002268E+01 -0.127475332E-01  0.250947944E+01
   H -0.291871459E+01  0.476628188E+01  0.244352957E+01
   H  0.291871459E+01  0.476628188E+01  0.244352957E+01
   H -0.579323725E+01 -0.457596293E+00  0.246820893E+01
   H  0.579323725E+01 -0.457596293E+00  0.246820893E+01
  Xx  0.309422010E-16  0.992620499E-02 -0.666856472E+03
    11
 # iter = 15000  time[fs]=15.00000
   N -0.113780607E+01 -0.177225087E+01  0.249755094E+01
   N  0.113780607E+01 -0.177225087E+01  0.249755094E+01
   C -0.934104971E+00  0.168786641E+01  0.250325042E+01
   C  0.934104971E+00  0.168786641E+01  0.250325042E+01
   C -0.192405673E+01 -0.148568658E-01  0.250971218E+01
   C  0.192405673E+01 -0.148568658E-01  0.250971218E+01
   H -0.296201396E+01  0.483426938E+01  0.244221697E+01
   H  0.296201396E+01  0.483426938E+01  0.244221697E+01
   H -0.588148138E+01 -0.470402427E+00  0.246757080E+01
   H  0.588148138E+01 -0.470402427E+00  0.246757080E+01
  Xx  0.314793868E-16  0.100987008E-01 -0.678498102E+03
    11
 # iter = 15250  time[fs]=15.25000
   N -0.114847062E+01 -0.178472282E+01  0.249754598E+01
   N  0.114847062E+01 -0.178472282E+01  0.249754598E+01
   C -0.938086382E+00  0.169787273E+01  0.250330916E+01
   C  0.938086382E+00  0.169787273E+01  0.250330916E+01
   C -0.193804202E+01 -0.170422798E-01  0.250990424E+01
   C  0.193804202E+01 -0.170422798E-01  0.250990424E+01
   H -0.300570660E+01  0.490283734E+01  0.244090470E+01
   H  0.300570660E+01  0.490283734E+01  0.244090470E+01
   H -0.597037910E+01 -0.483417745E+00  0.246695581E+01
   H  0.597037910E+01 -0.483417745E+00  0.246695581E+01
  Xx  0.320165727E-16  0.102711965E-01 -0.690139733E+03
    11
 # iter = 15500  time[fs]=15.50000
   N -0.115923106E+01 -0.179706642E+01  0.249757675E+01
   N  0.115923106E+01 -0.179706642E+01  0.249757675E+01
   C -0.941947046E+00  0.170787671E+01  0.250337473E+01
   C  0.941947046E+00  0.170787671E+01  0.250337473E+01
   C -0.195201333E+01 -0.193769075E-01  0.251004627E+01
   C  0.195201333E+01 -0.193769075E-01  0.251004627E+01
   H -0.304980215E+01  0.497199088E+01  0.243959159E+01
   H  0.304980215E+01  0.497199088E+01  0.243959159E+01
   H -0.605988565E+01 -0.496614653E+00  0.246631231E+01
   H  0.605988565E+01 -0.496614653E+00  0.246631231E+01
  Xx  0.325537586E-16  0.104436923E-01 -0.701781363E+03
    11
 # iter = 15750  time[fs]=15.75000
   N -0.117008185E+01 -0.180928725E+01  0.249759385E+01
   N  0.117008185E+01 -0.180928725E+01  0.249759385E+01
   C -0.945669924E+00  0.171786254E+01  0.250346452E+01
   C  0.945669924E+00  0.171786254E+01  0.250346452E+01
   C -0.196594564E+01 -0.218023645E-01  0.251016643E+01
   C  0.196594564E+01 -0.218023645E-01  0.251016643E+01
   H -0.309427454E+01  0.504175584E+01  0.243828248E+01
   H  0.309427454E+01  0.504175584E+01  0.243828248E+01
   H -0.615001050E+01 -0.509967168E+00  0.246566116E+01
   H  0.615001050E+01 -0.509967168E+00  0.246566116E+01
  Xx  0.330909444E-16  0.106161881E-01 -0.713422993E+03
    11
 # iter = 16000  time[fs]=16.00000
   N -0.118097358E+01 -0.182139345E+01  0.249762495E+01
   N  0.118097358E+01 -0.182139345E+01  0.249762495E+01
   C -0.949278122E+00  0.172782784E+01  0.250354513E+01
   C  0.949278122E+00  0.172782784E+01  0.250354513E+01
   C -0.197988299E+01 -0.242849182E-01  0.251030369E+01
   C  0.197988299E+01 -0.242849182E-01  0.251030369E+01
   H -0.313908008E+01  0.511208384E+01  0.243699415E+01
   H  0.313908008E+01  0.511208384E+01  0.243699415E+01
   H -0.624071916E+01 -0.523472972E+00  0.246502021E+01
   H  0.624071916E+01 -0.523472972E+00  0.246502021E+01
  Xx  0.336281303E-16  0.107886838E-01 -0.725064624E+03
    11
 # iter = 16250  time[fs]=16.25000
   N -0.119195394E+01 -0.183339338E+01  0.249766192E+01
   N  0.119195394E+01 -0.183339338E+01  0.249766192E+01
   C -0.952750888E+00  0.173776662E+01  0.250364308E+01
   C  0.952750888E+00  0.173776662E+01  0.250364308E+01
   C -0.199378039E+01 -0.268143014E-01  0.251041780E+01
   C  0.199378039E+01 -0.268143014E-01  0.251041780E+01
   H -0.318423110E+01  0.518293605E+01  0.243568305E+01
   H  0.318423110E+01  0.518293605E+01  0.243568305E+01
   H -0.633204274E+01 -0.537150184E+00  0.246436854E+01
   H  0.633204274E+01 -0.537150184E+00  0.246436854E+01
  Xx  0.341653161E-16  0.109611796E-01 -0.736706254E+03
    11
 # iter = 16500  time[fs]=16.50000
   N -0.120304752E+01 -0.184523879E+01  0.249769968E+01
   N  0.120304752E+01 -0.184523879E+01  0.249769968E+01
   C -0.956142139E+00  0.174765402E+01  0.250373460E+01
   C  0.956142139E+00  0.174765402E+01  0.250373460E+01
   C -0.200760848E+01 -0.294425033E-01  0.251054560E+01
   C  0.200760848E+01 -0.294425033E-01  0.251054560E+01
   H -0.322972477E+01  0.525431531E+01  0.243435159E+01
   H  0.322972477E+01  0.525431531E+01  0.243435159E+01
   H -0.642391095E+01 -0.550977388E+00  0.246370574E+01
   H  0.642391095E+01 -0.550977388E+00  0.246370574E+01
  Xx  0.347025020E-16  0.111336754E-01 -0.748347884E+03
    11
 # iter = 16750  time[fs]=16.75000
   N -0.121423333E+01 -0.185697704E+01  0.249771735E+01
   N  0.121423333E+01 -0.185697704E+01  0.249771735E+01
   C -0.959405992E+00  0.175748873E+01  0.250379694E+01
   C  0.959405992E+00  0.175748873E+01  0.250379694E+01
   C -0.202141074E+01 -0.321389547E-01  0.251071986E+01
   C  0.202141074E+01 -0.321389547E-01  0.251071986E+01
   H -0.327553013E+01  0.532622585E+01  0.243303775E+01
   H  0.327553013E+01  0.532622585E+01  0.243303775E+01
   H -0.651634543E+01 -0.564978825E+00  0.246303961E+01
   H  0.651634543E+01 -0.564978825E+00  0.246303961E+01
  Xx  0.352396878E-16  0.113061711E-01 -0.759989515E+03
    11
 # iter = 17000  time[fs]=17.00000
   N -0.122548492E+01 -0.186860151E+01  0.249775647E+01
   N  0.122548492E+01 -0.186860151E+01  0.249775647E+01
   C -0.962517037E+00  0.176730854E+01  0.250387373E+01
   C  0.962517037E+00  0.176730854E+01  0.250387373E+01
   C -0.203519102E+01 -0.349186809E-01  0.251084900E+01
   C  0.203519102E+01 -0.349186809E-01  0.251084900E+01
   H -0.332166042E+01  0.539860721E+01  0.243170046E+01
   H  0.332166042E+01  0.539860721E+01  0.243170046E+01
   H -0.660928078E+01 -0.579125898E+00  0.246236316E+01
   H  0.660928078E+01 -0.579125898E+00  0.246236316E+01
  Xx  0.357768737E-16  0.114786669E-01 -0.771631145E+03
    11
 # iter = 17250  time[fs]=17.25000
   N -0.123675761E+01 -0.188014957E+01  0.249782266E+01
   N  0.123675761E+01 -0.188014957E+01  0.249782266E+01
   C -0.965489996E+00  0.177712127E+01  0.250398296E+01
   C  0.965489996E+00  0.177712127E+01  0.250398296E+01
   C -0.204892790E+01 -0.378197377E-01  0.251093800E+01
   C  0.204892790E+01 -0.378197377E-01  0.251093800E+01
   H -0.336810385E+01  0.547147289E+01  0.243033736E+01
   H  0.336810385E+01  0.547147289E+01  0.243033736E+01
   H -0.670273265E+01 -0.593419952E+00  0.246169104E+01
   H  0.670273265E+01 -0.593419952E+00  0.246169104E+01
  Xx  0.363140595E-16  0.116511627E-01 -0.783272775E+03
    11
 # iter = 17500  time[fs]=17.50000
   N -0.124806235E+01 -0.189163037E+01  0.249789703E+01
   N  0.124806235E+01 -0.189163037E+01  0.249789703E+01
   C -0.968362785E+00  0.178688082E+01  0.250409786E+01
   C  0.968362785E+00  0.178688082E+01  0.250409786E+01
   C -0.206263438E+01 -0.408065581E-01  0.251098891E+01
   C  0.206263438E+01 -0.408065581E-01  0.251098891E+01
   H -0.341485694E+01  0.554479483E+01  0.242895924E+01
   H  0.341485694E+01  0.554479483E+01  0.242895924E+01
   H -0.679666385E+01 -0.607861088E+00  0.246102314E+01
   H  0.679666385E+01 -0.607861088E+00  0.246102314E+01
  Xx  0.368512454E-16  0.118236585E-01 -0.794914406E+03
    11
 # iter = 17750  time[fs]=17.75000
   N -0.125937297E+01 -0.190306445E+01  0.249797578E+01
   N  0.125937297E+01 -0.190306445E+01  0.249797578E+01
   C -0.971137420E+00  0.179660128E+01  0.250422284E+01
   C  0.971137420E+00  0.179660128E+01  0.250422284E+01
   C -0.207626087E+01 -0.438153034E-01  0.251101873E+01
   C  0.207626087E+01 -0.438153034E-01  0.251101873E+01
   H -0.346190568E+01  0.561854619E+01  0.242758276E+01
   H  0.346190568E+01  0.561854619E+01  0.242758276E+01
   H -0.689108919E+01 -0.622435829E+00  0.246033470E+01
   H  0.689108919E+01 -0.622435829E+00  0.246033470E+01
  Xx  0.373884313E-16  0.119961542E-01 -0.806556036E+03
    11
 # iter = 18000  time[fs]=18.00000
   N -0.127066159E+01 -0.191451141E+01  0.249806089E+01
   N  0.127066159E+01 -0.191451141E+01  0.249806089E+01
   C -0.973779830E+00  0.180628912E+01  0.250433772E+01
   C  0.973779830E+00  0.180628912E+01  0.250433772E+01
   C -0.208987595E+01 -0.468957318E-01  0.251107367E+01
   C  0.208987595E+01 -0.468957318E-01  0.251107367E+01
   H -0.350922682E+01  0.569274345E+01  0.242622382E+01
   H  0.350922682E+01  0.569274345E+01  0.242622382E+01
   H -0.698598827E+01 -0.637161626E+00  0.245964057E+01
   H  0.698598827E+01 -0.637161626E+00  0.245964057E+01
  Xx  0.379256171E-16  0.121686500E-01 -0.818197666E+03
    11
 # iter = 18250  time[fs]=18.25000
   N -0.128191836E+01 -0.192592817E+01  0.249812467E+01
   N  0.128191836E+01 -0.192592817E+01  0.249812467E+01
   C -0.976334330E+00  0.181593725E+01  0.250444592E+01
   C  0.976334330E+00  0.181593725E+01  0.250444592E+01
   C -0.210346744E+01 -0.500492702E-01  0.251115755E+01
   C  0.210346744E+01 -0.500492702E-01  0.251115755E+01
   H -0.355682821E+01  0.576737956E+01  0.242485213E+01
   H  0.355682821E+01  0.576737956E+01  0.242485213E+01
   H -0.708132540E+01 -0.652032641E+00  0.245894747E+01
   H  0.708132540E+01 -0.652032641E+00  0.245894747E+01
  Xx  0.384628030E-16  0.123411458E-01 -0.829839297E+03
    11
 # iter = 18500  time[fs]=18.50000
   N -0.129315142E+01 -0.193731488E+01  0.249817392E+01
   N  0.129315142E+01 -0.193731488E+01  0.249817392E+01
   C -0.978804375E+00  0.182555564E+01  0.250452905E+01
   C  0.978804375E+00  0.182555564E+01  0.250452905E+01
   C -0.211701432E+01 -0.533089088E-01  0.251129493E+01
   C  0.211701432E+01 -0.533089088E-01  0.251129493E+01
   H -0.360469917E+01  0.584243303E+01  0.242346054E+01
   H  0.360469917E+01  0.584243303E+01  0.242346054E+01
   H -0.717712702E+01 -0.667049029E+00  0.245825640E+01
   H  0.717712702E+01 -0.667049029E+00  0.245825640E+01
  Xx  0.389999888E-16  0.125136415E-01 -0.841480927E+03
    11
 # iter = 18750  time[fs]=18.75000
   N -0.130438445E+01 -0.194866150E+01  0.249825088E+01
   N  0.130438445E+01 -0.194866150E+01  0.249825088E+01
   C -0.981191781E+00  0.183511994E+01  0.250463123E+01
   C  0.981191781E+00  0.183511994E+01  0.250463123E+01
   C -0.213048956E+01 -0.566410311E-01  0.251138158E+01
   C  0.213048956E+01 -0.566410311E-01  0.251138158E+01
   H -0.365284482E+01  0.591790659E+01  0.242207840E+01
   H  0.365284482E+01  0.591790659E+01  0.242207840E+01
   H -0.727334595E+01 -0.682208595E+00  0.245758043E+01
   H  0.727334595E+01 -0.682208595E+00  0.245758043E+01
  Xx  0.395371747E-16  0.126861373E-01 -0.853122558E+03
    11
 # iter = 19000  time[fs]=19.00000
   N -0.131556346E+01 -0.195997284E+01  0.249835882E+01
   N  0.131556346E+01 -0.195997284E+01  0.249835882E+01
   C -0.983452100E+00  0.184469740E+01  0.250475173E+01
   C  0.983452100E+00  0.184469740E+01  0.250475173E+01
   C -0.214392706E+01 -0.601238192E-01  0.251140347E+01
   C  0.214392706E+01 -0.601238192E-01  0.251140347E+01
   H -0.370126042E+01  0.599378405E+01  0.242068999E+01
   H  0.370126042E+01  0.599378405E+01  0.242068999E+01
   H -0.736999401E+01 -0.697509828E+00  0.245690058E+01
   H  0.736999401E+01 -0.697509828E+00  0.245690058E+01
  Xx  0.400743605E-16  0.128586331E-01 -0.864764188E+03
    11
 # iter = 19250  time[fs]=19.25000
   N -0.132671291E+01 -0.197122091E+01  0.249847240E+01
   N  0.132671291E+01 -0.197122091E+01  0.249847240E+01
   C -0.985556609E+00  0.185424924E+01  0.250486572E+01
   C  0.985556609E+00  0.185424924E+01  0.250486572E+01
   C -0.215735233E+01 -0.637344633E-01  0.251144440E+01
   C  0.215735233E+01 -0.637344633E-01  0.251144440E+01
   H -0.374992757E+01  0.607004721E+01  0.241928969E+01
   H  0.374992757E+01  0.607004721E+01  0.241928969E+01
   H -0.746706557E+01 -0.712930843E+00  0.245620910E+01
   H  0.746706557E+01 -0.712930843E+00  0.245620910E+01
  Xx  0.406115464E-16  0.130311288E-01 -0.876405818E+03
    11
 # iter = 19500  time[fs]=19.50000
   N -0.133784602E+01 -0.198239578E+01  0.249859169E+01
   N  0.133784602E+01 -0.198239578E+01  0.249859169E+01
   C -0.987576932E+00  0.186377349E+01  0.250498837E+01
   C  0.987576932E+00  0.186377349E+01  0.250498837E+01
   C -0.217070470E+01 -0.674563150E-01  0.251145228E+01
   C  0.217070470E+01 -0.674563150E-01  0.251145228E+01
   H -0.379882859E+01  0.614670061E+01  0.241789126E+01
   H  0.379882859E+01  0.614670061E+01  0.241789126E+01
   H -0.756454934E+01 -0.728477481E+00  0.245552117E+01
   H  0.756454934E+01 -0.728477481E+00  0.245552117E+01
  Xx  0.411487322E-16  0.132036246E-01 -0.888047449E+03
    11
 # iter = 19750  time[fs]=19.75000
   N -0.134895955E+01 -0.199351287E+01  0.249870399E+01
   N  0.134895955E+01 -0.199351287E+01  0.249870399E+01
   C -0.989542466E+00  0.187328708E+01  0.250510910E+01
   C  0.989542466E+00  0.187328708E+01  0.250510910E+01
   C -0.218400814E+01 -0.712939576E-01  0.251148660E+01
   C  0.218400814E+01 -0.712939576E-01  0.251148660E+01
   H -0.384798302E+01  0.622373557E+01  0.241647607E+01
   H  0.384798302E+01  0.622373557E+01  0.241647607E+01
   H -0.766243902E+01 -0.744149911E+00  0.245483120E+01
   H  0.766243902E+01 -0.744149911E+00  0.245483120E+01
  Xx  0.416859181E-16  0.133761204E-01 -0.899689079E+03
    11
 # iter = 20000  time[fs]=20.00000
   N -0.136004041E+01 -0.200452475E+01  0.249880720E+01
   N  0.136004041E+01 -0.200452475E+01  0.249880720E+01
   C -0.991416300E+00  0.188275952E+01  0.250520838E+01
   C  0.991416300E+00  0.188275952E+01  0.250520838E+01
   C -0.219728440E+01 -0.752181120E-01  0.251154102E+01
   C  0.219728440E+01 -0.752181120E-01  0.251154102E+01
   H -0.389737747E+01  0.630112442E+01  0.241504913E+01
   H  0.389737747E+01  0.630112442E+01  0.241504913E+01
   H -0.776071586E+01 -0.759948407E+00  0.245413404E+01
   H  0.776071586E+01 -0.759948407E+00  0.245413404E+01
  Xx  0.422231040E-16  0.135486161E-01 -0.911330709E+03
    11
 # iter = 20250  time[fs]=20.25000
   N -0.137112353E+01 -0.201541936E+01  0.249891597E+01
   N  0.137112353E+01 -0.201541936E+01  0.249891597E+01
   C -0.993153406E+00  0.189223180E+01  0.250530060E+01
   C  0.993153406E+00  0.189223180E+01  0.250530060E+01
   C -0.221052449E+01 -0.793307186E-01  0.251158765E+01
   C  0.221052449E+01 -0.793307186E-01  0.251158765E+01
   H -0.394701018E+01  0.637888830E+01  0.241362682E+01
   H  0.394701018E+01  0.637888830E+01  0.241362682E+01
   H -0.785938755E+01 -0.775882353E+00  0.245343667E+01
   H  0.785938755E+01 -0.775882353E+00  0.245343667E+01
  Xx  0.427602898E-16  0.137211119E-01 -0.922972340E+03
    11
 # iter = 20500  time[fs]=20.50000
   N -0.138224073E+01 -0.202618541E+01  0.249902089E+01
   N  0.138224073E+01 -0.202618541E+01  0.249902089E+01
   C -0.994764273E+00  0.190171054E+01  0.250539458E+01
   C  0.994764273E+00  0.190171054E+01  0.250539458E+01
   C -0.222372668E+01 -0.835582883E-01  0.251164906E+01
   C  0.222372668E+01 -0.835582883E-01  0.251164906E+01
   H -0.399685750E+01  0.645698994E+01  0.241220774E+01
   H  0.399685750E+01  0.645698994E+01  0.241220774E+01
   H -0.795845096E+01 -0.791932485E+00  0.245273910E+01
   H  0.795845096E+01 -0.791932485E+00  0.245273910E+01
  Xx  0.432974757E-16  0.138936077E-01 -0.934613970E+03
    11
 # iter = 20750  time[fs]=20.75000
   N -0.139339922E+01 -0.203683995E+01  0.249911573E+01
   N  0.139339922E+01 -0.203683995E+01  0.249911573E+01
   C -0.996289197E+00  0.191116026E+01  0.250550707E+01
   C  0.996289197E+00  0.191116026E+01  0.250550707E+01
   C -0.223685079E+01 -0.878700417E-01  0.251170032E+01
   C  0.223685079E+01 -0.878700417E-01  0.251170032E+01
   H -0.404692166E+01  0.653542256E+01  0.241078647E+01
   H  0.404692166E+01  0.653542256E+01  0.241078647E+01
   H -0.805789086E+01 -0.808099168E+00  0.245204271E+01
   H  0.805789086E+01 -0.808099168E+00  0.245204271E+01
  Xx  0.438346615E-16  0.140661035E-01 -0.946255600E+03
    11
 # iter = 21000  time[fs]=21.00000
   N -0.140462113E+01 -0.204735902E+01  0.249922417E+01
   N  0.140462113E+01 -0.204735902E+01  0.249922417E+01
   C -0.997749020E+00  0.192055577E+01  0.250562137E+01
   C  0.997749020E+00  0.192055577E+01  0.250562137E+01
   C -0.224992867E+01 -0.922529315E-01  0.251172508E+01
   C  0.224992867E+01 -0.922529315E-01  0.251172508E+01
   H -0.409722050E+01  0.661420863E+01  0.240934682E+01
   H  0.409722050E+01  0.661420863E+01  0.240934682E+01
   H -0.815770565E+01 -0.824388646E+00  0.245134796E+01
   H  0.815770565E+01 -0.824388646E+00  0.245134796E+01
  Xx  0.443718474E-16  0.142385992E-01 -0.957897231E+03
    11
 # iter = 21250  time[fs]=21.25000
   N -0.141590781E+01 -0.205772865E+01  0.249934406E+01
   N  0.141590781E+01 -0.205772865E+01  0.249934406E+01
   C -0.999110287E+00  0.192994619E+01  0.250575113E+01
   C  0.999110287E+00  0.192994619E+01  0.250575113E+01
   C -0.226295329E+01 -0.967567694E-01  0.251172136E+01
   C  0.226295329E+01 -0.967567694E-01  0.251172136E+01
   H -0.414773346E+01  0.669332732E+01  0.240789324E+01
   H  0.414773346E+01  0.669332732E+01  0.240789324E+01
   H -0.825789432E+01 -0.840795417E+00  0.245064655E+01
   H  0.825789432E+01 -0.840795417E+00  0.245064655E+01
  Xx  0.449090332E-16  0.144110950E-01 -0.969538861E+03
    11
 # iter = 21500  time[fs]=21.50000
   N -0.142726870E+01 -0.206792483E+01  0.249947052E+01
   N  0.142726870E+01 -0.206792483E+01  0.249947052E+01
   C -0.100036934E+01  0.193930542E+01  0.250585800E+01
   C  0.100036934E+01  0.193930542E+01  0.250585800E+01
   C -0.227593816E+01 -0.101378470E+00  0.251172448E+01
   C  0.227593816E+01 -0.101378470E+00  0.251172448E+01
   H -0.419845499E+01  0.677277171E+01  0.240643278E+01
   H  0.419845499E+01  0.677277171E+01  0.240643278E+01
   H -0.835844922E+01 -0.857326517E+00  0.244993263E+01
   H  0.835844922E+01 -0.857326517E+00  0.244993263E+01
  Xx  0.454462191E-16  0.145835908E-01 -0.981180491E+03
    11
 # iter = 21750  time[fs]=21.75000
   N -0.143871163E+01 -0.207798618E+01  0.249959908E+01
   N  0.143871163E+01 -0.207798618E+01  0.249959908E+01
   C -0.100146523E+01  0.194867762E+01  0.250597611E+01
   C  0.100146523E+01  0.194867762E+01  0.250597611E+01
   C -0.228886075E+01 -0.106108305E+00  0.251171815E+01
   C  0.228886075E+01 -0.106108305E+00  0.251171815E+01
   H -0.424938204E+01  0.685254427E+01  0.240496720E+01
   H  0.424938204E+01  0.685254427E+01  0.240496720E+01
   H -0.845936479E+01 -0.873977941E+00  0.244920851E+01
   H  0.845936479E+01 -0.873977941E+00  0.244920851E+01
  Xx  0.459834049E-16  0.147560865E-01 -0.992822122E+03
    11
 # iter = 22000  time[fs]=22.00000
   N -0.145027276E+01 -0.208789807E+01  0.249970920E+01
   N  0.145027276E+01 -0.208789807E+01  0.249970920E+01
   C -0.100240318E+01  0.195803109E+01  0.250607760E+01
   C  0.100240318E+01  0.195803109E+01  0.250607760E+01
   C -0.230171842E+01 -0.110944263E+00  0.251174902E+01
   C  0.230171842E+01 -0.110944263E+00  0.251174902E+01
   H -0.430051044E+01  0.693262787E+01  0.240350389E+01
   H  0.430051044E+01  0.693262787E+01  0.240350389E+01
   H -0.856064136E+01 -0.890750478E+00  0.244847835E+01
   H  0.856064136E+01 -0.890750478E+00  0.244847835E+01
  Xx  0.465205908E-16  0.149285823E-01 -0.100446375E+04
    11
 # iter = 22250  time[fs]=22.25000
   N -0.146191102E+01 -0.209766155E+01  0.249981463E+01
   N  0.146191102E+01 -0.209766155E+01  0.249981463E+01
   C -0.100315559E+01  0.196738070E+01  0.250618387E+01
   C  0.100315559E+01  0.196738070E+01  0.250618387E+01
   C -0.231453668E+01 -0.115931164E+00  0.251178251E+01
   C  0.231453668E+01 -0.115931164E+00  0.251178251E+01
   H -0.435184643E+01  0.701302812E+01  0.240204067E+01
   H  0.435184643E+01  0.701302812E+01  0.240204067E+01
   H -0.866226690E+01 -0.907643739E+00  0.244774532E+01
   H  0.866226690E+01 -0.907643739E+00  0.244774532E+01
  Xx  0.470577767E-16  0.151010781E-01 -0.101610538E+04
    11
 # iter = 22500  time[fs]=22.50000
   N -0.147363710E+01 -0.210725270E+01  0.249993143E+01
   N  0.147363710E+01 -0.210725270E+01  0.249993143E+01
   C -0.100376637E+01  0.197674301E+01  0.250630436E+01
   C  0.100376637E+01  0.197674301E+01  0.250630436E+01
   C -0.232730822E+01 -0.121028270E+00  0.251179802E+01
   C  0.232730822E+01 -0.121028270E+00  0.251179802E+01
   H -0.440337215E+01  0.709373108E+01  0.240056770E+01
   H  0.440337215E+01  0.709373108E+01  0.240056770E+01
   H -0.876424389E+01 -0.924650668E+00  0.244701432E+01
   H  0.876424389E+01 -0.924650668E+00  0.244701432E+01
  Xx  0.475949625E-16  0.152735738E-01 -0.102774701E+04
    11
 # iter = 22750  time[fs]=22.75000
   N -0.148541697E+01 -0.211672062E+01  0.250005143E+01
   N  0.148541697E+01 -0.211672062E+01  0.250005143E+01
   C -0.100426337E+01  0.198606321E+01  0.250641459E+01
   C  0.100426337E+01  0.198606321E+01  0.250641459E+01
   C -0.234003612E+01 -0.126267454E+00  0.251181444E+01
   C  0.234003612E+01 -0.126267454E+00  0.251181444E+01
   H -0.445509751E+01  0.717473179E+01  0.239909307E+01
   H  0.445509751E+01  0.717473179E+01  0.239909307E+01
   H -0.886656203E+01 -0.941778244E+00  0.244628520E+01
   H  0.886656203E+01 -0.941778244E+00  0.244628520E+01
  Xx  0.481321484E-16  0.154460696E-01 -0.103938864E+04
    11
 # iter = 23000  time[fs]=23.00000
   N -0.149724268E+01 -0.212608679E+01  0.250018598E+01
   N  0.149724268E+01 -0.212608679E+01  0.250018598E+01
   C -0.100464023E+01  0.199534405E+01  0.250653366E+01
   C  0.100464023E+01  0.199534405E+01  0.250653366E+01
   C -0.235270621E+01 -0.131574067E+00  0.251179611E+01
   C  0.235270621E+01 -0.131574067E+00  0.251179611E+01
   H -0.450701740E+01  0.725603339E+01  0.239762177E+01
   H  0.450701740E+01  0.725603339E+01  0.239762177E+01
   H -0.896922225E+01 -0.959019904E+00  0.244555659E+01
   H  0.896922225E+01 -0.959019904E+00  0.244555659E+01
  Xx  0.486693342E-16  0.156185654E-01 -0.105103027E+04
    11
 # iter = 23250  time[fs]=23.25000
   N -0.150909951E+01 -0.213537477E+01  0.250033216E+01
   N  0.150909951E+01 -0.213537477E+01  0.250033216E+01
   C -0.100488059E+01  0.200462026E+01  0.250666432E+01
   C  0.100488059E+01  0.200462026E+01  0.250666432E+01
   C -0.236531422E+01 -0.136963418E+00  0.251177565E+01
   C  0.236531422E+01 -0.136963418E+00  0.251177565E+01
   H -0.455911971E+01  0.733762233E+01  0.239614569E+01
   H  0.455911971E+01  0.733762233E+01  0.239614569E+01
   H -0.907222223E+01 -0.976371284E+00  0.244482764E+01
   H  0.907222223E+01 -0.976371284E+00  0.244482764E+01
  Xx  0.492065201E-16  0.157910611E-01 -0.106267190E+04
    11
 # iter = 23500  time[fs]=23.50000
   N -0.152099139E+01 -0.214458916E+01  0.250047649E+01
   N  0.152099139E+01 -0.214458916E+01  0.250047649E+01
   C -0.100496766E+01  0.201388548E+01  0.250677879E+01
   C  0.100496766E+01  0.201388548E+01  0.250677879E+01
   C -0.237789937E+01 -0.142483045E+00  0.251175236E+01
   C  0.237789937E+01 -0.142483045E+00  0.251175236E+01
   H -0.461140927E+01  0.741948604E+01  0.239466489E+01
   H  0.461140927E+01  0.741948604E+01  0.239466489E+01
   H -0.917555008E+01 -0.993833387E+00  0.244409667E+01
   H  0.917555008E+01 -0.993833387E+00  0.244409667E+01
  Xx  0.497437059E-16  0.159635569E-01 -0.107431353E+04
    11
 # iter = 23750  time[fs]=23.75000
   N -0.153290587E+01 -0.215371832E+01  0.250061914E+01
   N  0.153290587E+01 -0.215371832E+01  0.250061914E+01
   C -0.100491001E+01  0.202311372E+01  0.250690495E+01
   C  0.100491001E+01  0.202311372E+01  0.250690495E+01
   C -0.239044124E+01 -0.148138073E+00  0.251171922E+01
   C  0.239044124E+01 -0.148138073E+00  0.251171922E+01
   H -0.466388500E+01  0.750163533E+01  0.239318174E+01
   H  0.466388500E+01  0.750163533E+01  0.239318174E+01
   H -0.927920020E+01 -0.101140115E+01  0.244336508E+01
   H  0.927920020E+01 -0.101140115E+01  0.244336508E+01
  Xx  0.502808918E-16  0.161360527E-01 -0.108595516E+04
    11
 # iter = 24000  time[fs]=24.00000
   N -0.154482650E+01 -0.216280179E+01  0.250075809E+01
   N  0.154482650E+01 -0.216280179E+01  0.250075809E+01
   C -0.100465617E+01  0.203235040E+01  0.250701977E+01
   C  0.100465617E+01  0.203235040E+01  0.250701977E+01
   C -0.240293783E+01 -0.153902587E+00  0.251170233E+01
   C  0.240293783E+01 -0.153902587E+00  0.251170233E+01
   H -0.471652733E+01  0.758404932E+01  0.239169497E+01
   H  0.471652733E+01  0.758404932E+01  0.239169497E+01
   H -0.938317331E+01 -0.102907100E+01  0.244263281E+01
   H  0.938317331E+01 -0.102907100E+01  0.244263281E+01
  Xx  0.508180776E-16  0.163085485E-01 -0.109759679E+04
    11
 # iter = 24250  time[fs]=24.25000
   N -0.155672404E+01 -0.217184606E+01  0.250088830E+01
   N  0.155672404E+01 -0.217184606E+01  0.250088830E+01
   C -0.100427734E+01  0.204155664E+01  0.250714440E+01
   C  0.100427734E+01  0.204155664E+01  0.250714440E+01
   C -0.241538867E+01 -0.159762751E+00  0.251168174E+01
   C  0.241538867E+01 -0.159762751E+00  0.251168174E+01
   H -0.476933980E+01  0.766671716E+01  0.239020554E+01
   H  0.476933980E+01  0.766671716E+01  0.239020554E+01
   H -0.948746198E+01 -0.104684494E+01  0.244189885E+01
   H  0.948746198E+01 -0.104684494E+01  0.244189885E+01
  Xx  0.513552635E-16  0.164810442E-01 -0.110923843E+04
    11
 # iter = 24500  time[fs]=24.50000
   N -0.156860046E+01 -0.218085753E+01  0.250102346E+01
   N  0.156860046E+01 -0.218085753E+01  0.250102346E+01
   C -0.100377872E+01  0.205074093E+01  0.250726305E+01
   C  0.100377872E+01  0.205074093E+01  0.250726305E+01
   C -0.242779292E+01 -0.165738554E+00  0.251166337E+01
   C  0.242779292E+01 -0.165738554E+00  0.251166337E+01
   H -0.482233361E+01  0.774965774E+01  0.238871300E+01
   H  0.482233361E+01  0.774965774E+01  0.238871300E+01
   H -0.959205735E+01 -0.106472312E+01  0.244116196E+01
   H  0.959205735E+01 -0.106472312E+01  0.244116196E+01
  Xx  0.518924494E-16  0.166535400E-01 -0.112088006E+04
    11
 # iter = 24750  time[fs]=24.75000
   N -0.158047130E+01 -0.218981324E+01  0.250115973E+01
   N  0.158047130E+01 -0.218981324E+01  0.250115973E+01
   C -0.100315920E+01  0.205990217E+01  0.250739825E+01
   C  0.100315920E+01  0.205990217E+01  0.250739825E+01
   C -0.244016055E+01 -0.171845300E+00  0.251163609E+01
   C  0.244016055E+01 -0.171845300E+00  0.251163609E+01
   H -0.487549400E+01  0.783285282E+01  0.238721978E+01
   H  0.487549400E+01  0.783285282E+01  0.238721978E+01
   H -0.969695299E+01 -0.108270217E+01  0.244042128E+01
   H  0.969695299E+01 -0.108270217E+01  0.244042128E+01
  Xx  0.524296352E-16  0.168260358E-01 -0.113252169E+04
    11
 # iter = 25000  time[fs]=25.00000
   N -0.159233495E+01 -0.219870955E+01  0.250129821E+01
   N  0.159233495E+01 -0.219870955E+01  0.250129821E+01
   C -0.100237924E+01  0.206904872E+01  0.250752803E+01
   C  0.100237924E+01  0.206904872E+01  0.250752803E+01
   C -0.245247539E+01 -0.178093283E+00  0.251160639E+01
   C  0.245247539E+01 -0.178093283E+00  0.251160639E+01
   H -0.492882765E+01  0.791630591E+01  0.238572188E+01
   H  0.492882765E+01  0.791630591E+01  0.238572188E+01
   H -0.980214644E+01 -0.110078068E+01  0.243967734E+01
   H  0.980214644E+01 -0.110078068E+01  0.243967734E+01
  Xx  0.529668211E-16  0.169985315E-01 -0.114416332E+04
    11
 # iter = 25250  time[fs]=25.25000
   N -0.160419724E+01 -0.220755756E+01  0.250143958E+01
   N  0.160419724E+01 -0.220755756E+01  0.250143958E+01
   C -0.100144704E+01  0.207817812E+01  0.250765164E+01
   C  0.100144704E+01  0.207817812E+01  0.250765164E+01
   C -0.246474870E+01 -0.184453780E+00  0.251156100E+01
   C  0.246474870E+01 -0.184453780E+00  0.251156100E+01
   H -0.498232983E+01  0.800001516E+01  0.238421822E+01
   H  0.498232983E+01  0.800001516E+01  0.238421822E+01
   H -0.990763275E+01 -0.111895795E+01  0.243893059E+01
   H  0.990763275E+01 -0.111895795E+01  0.243893059E+01
  Xx  0.535040069E-16  0.171710273E-01 -0.115580495E+04
    11
 # iter = 25500  time[fs]=25.50000
   N -0.161606501E+01 -0.221636379E+01  0.250157149E+01
   N  0.161606501E+01 -0.221636379E+01  0.250157149E+01
   C -0.100035633E+01  0.208728428E+01  0.250778642E+01
   C  0.100035633E+01  0.208728428E+01  0.250778642E+01
   C -0.247696395E+01 -0.190969912E+00  0.251151961E+01
   C  0.247696395E+01 -0.190969912E+00  0.251151961E+01
   H -0.503600087E+01  0.808398120E+01  0.238271313E+01
   H  0.503600087E+01  0.808398120E+01  0.238271313E+01
   H -0.100134079E+02 -0.113723543E+01  0.243818175E+01
   H  0.100134079E+02 -0.113723543E+01  0.243818175E+01
  Xx  0.540411928E-16  0.173435231E-01 -0.116744658E+04
    11
 # iter = 25750  time[fs]=25.75000
   N -0.162798182E+01 -0.222508042E+01  0.250170546E+01
   N  0.162798182E+01 -0.222508042E+01  0.250170546E+01
   C -0.999078574E+00  0.209638857E+01  0.250791989E+01
   C  0.999078574E+00  0.209638857E+01  0.250791989E+01
   C -0.248913536E+01 -0.197585054E+00  0.251147256E+01
   C  0.248913536E+01 -0.197585054E+00  0.251147256E+01
   H -0.508983717E+01  0.816819392E+01  0.238120378E+01
   H  0.508983717E+01  0.816819392E+01  0.238120378E+01
   H -0.101194671E+02 -0.115560607E+01  0.243743110E+01
   H  0.101194671E+02 -0.115560607E+01  0.243743110E+01
  Xx  0.545783786E-16  0.175160188E-01 -0.117908821E+04
    11
 # iter = 26000  time[fs]=26.00000
   N -0.163994988E+01 -0.223374542E+01  0.250184603E+01
   N  0.163994988E+01 -0.223374542E+01  0.250184603E+01
   C -0.997629598E+00  0.210549366E+01  0.250805266E+01
   C  0.997629598E+00  0.210549366E+01  0.250805266E+01
   C -0.250125227E+01 -0.204374815E+00  0.251142494E+01
   C  0.250125227E+01 -0.204374815E+00  0.251142494E+01
   H -0.514384539E+01  0.825265796E+01  0.237968980E+01
   H  0.514384539E+01  0.825265796E+01  0.237968980E+01
   H -0.102258049E+02 -0.117407564E+01  0.243667946E+01
   H  0.102258049E+02 -0.117407564E+01  0.243667946E+01
  Xx  0.551155645E-16  0.176885146E-01 -0.119072984E+04
    11
 # iter = 26250  time[fs]=26.25000
   N -0.165201834E+01 -0.224230683E+01  0.250198851E+01
   N  0.165201834E+01 -0.224230683E+01  0.250198851E+01
   C -0.996015439E+00  0.211459000E+01  0.250818949E+01
   C  0.996015439E+00  0.211459000E+01  0.250818949E+01
   C -0.251332214E+01 -0.211300238E+00  0.251137194E+01
   C  0.251332214E+01 -0.211300238E+00  0.251137194E+01
   H -0.519803022E+01  0.833737451E+01  0.237817414E+01
   H  0.519803022E+01  0.833737451E+01  0.237817414E+01
   H -0.103324120E+02 -0.119264123E+01  0.243592779E+01
   H  0.103324120E+02 -0.119264123E+01  0.243592779E+01
  Xx  0.556527503E-16  0.178610104E-01 -0.120237147E+04
    11
 # iter = 26500  time[fs]=26.50000
   N -0.166418006E+01 -0.225079683E+01  0.250214013E+01
   N  0.166418006E+01 -0.225079683E+01  0.250214013E+01
   C -0.994221366E+00  0.212367976E+01  0.250832159E+01
   C  0.994221366E+00  0.212367976E+01  0.250832159E+01
   C -0.252534125E+01 -0.218378036E+00  0.251129710E+01
   C  0.252534125E+01 -0.218378036E+00  0.251129710E+01
   H -0.525238508E+01  0.842233719E+01  0.237665560E+01
   H  0.525238508E+01  0.842233719E+01  0.237665560E+01
   H -0.104392864E+02 -0.121130315E+01  0.243517656E+01
   H  0.104392864E+02 -0.121130315E+01  0.243517656E+01
  Xx  0.561899362E-16  0.180335061E-01 -0.121401310E+04
    11
 # iter = 26750  time[fs]=26.75000
   N -0.167646679E+01 -0.225917946E+01  0.250229715E+01
   N  0.167646679E+01 -0.225917946E+01  0.250229715E+01
   C -0.992221726E+00  0.213278872E+01  0.250845240E+01
   C  0.992221726E+00  0.213278872E+01  0.250845240E+01
   C -0.253730105E+01 -0.225569456E+00  0.251123372E+01
   C  0.253730105E+01 -0.225569456E+00  0.251123372E+01
   H -0.530690322E+01  0.850754026E+01  0.237513628E+01
   H  0.530690322E+01  0.850754026E+01  0.237513628E+01
   H -0.105464226E+02 -0.123005635E+01  0.243442650E+01
   H  0.105464226E+02 -0.123005635E+01  0.243442650E+01
  Xx  0.567271221E-16  0.182060019E-01 -0.122565473E+04
    11
 # iter = 27000  time[fs]=27.00000
   N -0.168886364E+01 -0.226744492E+01  0.250244852E+01
   N  0.168886364E+01 -0.226744492E+01  0.250244852E+01
   C -0.990063722E+00  0.214190743E+01  0.250858144E+01
   C  0.990063722E+00  0.214190743E+01  0.250858144E+01
   C -0.254921736E+01 -0.232925570E+00  0.251116830E+01
   C  0.254921736E+01 -0.232925570E+00  0.251116830E+01
   H -0.536158289E+01  0.859298111E+01  0.237361521E+01
   H  0.536158289E+01  0.859298111E+01  0.237361521E+01
   H -0.106538168E+02 -0.124890123E+01  0.243367669E+01
   H  0.106538168E+02 -0.124890123E+01  0.243367669E+01
  Xx  0.572643079E-16  0.183784977E-01 -0.123729636E+04
    11
 # iter = 27250  time[fs]=27.25000
   N -0.170136399E+01 -0.227558718E+01  0.250258103E+01
   N  0.170136399E+01 -0.227558718E+01  0.250258103E+01
   C -0.987770274E+00  0.215099742E+01  0.250871052E+01
   C  0.987770274E+00  0.215099742E+01  0.250871052E+01
   C -0.256107793E+01 -0.240418760E+00  0.251111057E+01
   C  0.256107793E+01 -0.240418760E+00  0.251111057E+01
   H -0.541642593E+01  0.867865935E+01  0.237209023E+01
   H  0.541642593E+01  0.867865935E+01  0.237209023E+01
   H -0.107614632E+02 -0.126783845E+01  0.243292633E+01
   H  0.107614632E+02 -0.126783845E+01  0.243292633E+01
  Xx  0.578014938E-16  0.185509934E-01 -0.124893799E+04
    11
 # iter = 27500  time[fs]=27.50000
   N -0.171397346E+01 -0.228358507E+01  0.250271132E+01
   N  0.171397346E+01 -0.228358507E+01  0.250271132E+01
   C -0.985314758E+00  0.216010842E+01  0.250883131E+01
   C  0.985314758E+00  0.216010842E+01  0.250883131E+01
   C -0.257287312E+01 -0.248058521E+00  0.251105943E+01
   C  0.257287312E+01 -0.248058521E+00  0.251105943E+01
   H -0.547142389E+01  0.876456577E+01  0.237056006E+01
   H  0.547142389E+01  0.876456577E+01  0.237056006E+01
   H -0.108693601E+02 -0.128686382E+01  0.243217455E+01
   H  0.108693601E+02 -0.128686382E+01  0.243217455E+01
  Xx  0.583386796E-16  0.187234892E-01 -0.126057962E+04
    11
 # iter = 27750  time[fs]=27.75000
   N -0.172668622E+01 -0.229144443E+01  0.250284161E+01
   N  0.172668622E+01 -0.229144443E+01  0.250284161E+01
   C -0.982685332E+00  0.216922730E+01  0.250896271E+01
   C  0.982685332E+00  0.216922730E+01  0.250896271E+01
   C -0.258462312E+01 -0.255800799E+00  0.251100072E+01
   C  0.258462312E+01 -0.255800799E+00  0.251100072E+01
   H -0.552657059E+01  0.885069334E+01  0.236902457E+01
   H  0.552657059E+01  0.885069334E+01  0.236902457E+01
   H -0.109775039E+02 -0.130597429E+01  0.243142058E+01
   H  0.109775039E+02 -0.130597429E+01  0.243142058E+01
  Xx  0.588758655E-16  0.188959850E-01 -0.127222125E+04
    11
 # iter = 28000  time[fs]=28.00000
   N -0.173948274E+01 -0.229916480E+01  0.250297952E+01
   N  0.173948274E+01 -0.229916480E+01  0.250297952E+01
   C -0.979883386E+00  0.217832043E+01  0.250908939E+01
   C  0.979883386E+00  0.217832043E+01  0.250908939E+01
   C -0.259630553E+01 -0.263673061E+00  0.251092753E+01
   C  0.259630553E+01 -0.263673061E+00  0.251092753E+01
   H -0.558187085E+01  0.893704492E+01  0.236748358E+01
   H  0.558187085E+01  0.893704492E+01  0.236748358E+01
   H -0.110858877E+02 -0.132517182E+01  0.243066404E+01
   H  0.110858877E+02 -0.132517182E+01  0.243066404E+01
  Xx  0.594130513E-16  0.190684808E-01 -0.128386288E+04
    11
 # iter = 28250  time[fs]=28.25000
   N -0.175232066E+01 -0.230669706E+01  0.250312193E+01
   N  0.175232066E+01 -0.230669706E+01  0.250312193E+01
   C -0.976916775E+00  0.218743108E+01  0.250921187E+01
   C  0.976916775E+00  0.218743108E+01  0.250921187E+01
   C -0.260796799E+01 -0.271701175E+00  0.251082175E+01
   C  0.260796799E+01 -0.271701175E+00  0.251082175E+01
   H -0.563732309E+01  0.902361594E+01  0.236593755E+01
   H  0.563732309E+01  0.902361594E+01  0.236593755E+01
   H -0.111945055E+02 -0.134445390E+01  0.242990498E+01
   H  0.111945055E+02 -0.134445390E+01  0.242990498E+01
  Xx  0.599502372E-16  0.192409765E-01 -0.129550451E+04
    11
 # iter = 28500  time[fs]=28.50000
   N -0.176518914E+01 -0.231407198E+01  0.250325975E+01
   N  0.176518914E+01 -0.231407198E+01  0.250325975E+01
   C -0.973766144E+00  0.219655388E+01  0.250934311E+01
   C  0.973766144E+00  0.219655388E+01  0.250934311E+01
   C -0.261958504E+01 -0.279869160E+00  0.251072091E+01
   C  0.261958504E+01 -0.279869160E+00  0.251072091E+01
   H -0.569292216E+01  0.911040084E+01  0.236438739E+01
   H  0.569292216E+01  0.911040084E+01  0.236438739E+01
   H -0.113033557E+02 -0.136381900E+01  0.242914426E+01
   H  0.113033557E+02 -0.136381900E+01  0.242914426E+01
  Xx  0.604874230E-16  0.194134723E-01 -0.130714614E+04
    11
 # iter = 28750  time[fs]=28.75000
   N -0.177808234E+01 -0.232127376E+01  0.250338742E+01
   N  0.177808234E+01 -0.232127376E+01  0.250338742E+01
   C -0.970411708E+00  0.220567718E+01  0.250946482E+01
   C  0.970411708E+00  0.220567718E+01  0.250946482E+01
   C -0.263118627E+01 -0.288181914E+00  0.251063259E+01
   C  0.263118627E+01 -0.288181914E+00  0.251063259E+01
   H -0.574866232E+01  0.919739243E+01  0.236283339E+01
   H  0.574866232E+01  0.919739243E+01  0.236283339E+01
   H -0.114124347E+02 -0.138326386E+01  0.242838228E+01
   H  0.114124347E+02 -0.138326386E+01  0.242838228E+01
  Xx  0.610246089E-16  0.195859681E-01 -0.131878777E+04
    11
 # iter = 29000  time[fs]=29.00000
   N -0.179100172E+01 -0.232831924E+01  0.250349977E+01
   N  0.179100172E+01 -0.232831924E+01  0.250349977E+01
   C -0.966858619E+00  0.221482028E+01  0.250959197E+01
   C  0.966858619E+00  0.221482028E+01  0.250959197E+01
   C -0.264270323E+01 -0.296611745E+00  0.251054731E+01
   C  0.264270323E+01 -0.296611745E+00  0.251054731E+01
   H -0.580453999E+01  0.928458704E+01  0.236127699E+01
   H  0.580453999E+01  0.928458704E+01  0.236127699E+01
   H -0.115217403E+02 -0.140278739E+01  0.242761932E+01
   H  0.115217403E+02 -0.140278739E+01  0.242761932E+01
  Xx  0.615617948E-16  0.197584638E-01 -0.133042940E+04
    11
 # iter = 29250  time[fs]=29.25000
   N -0.180393491E+01 -0.233522138E+01  0.250360364E+01
   N  0.180393491E+01 -0.233522138E+01  0.250360364E+01
   C -0.963134301E+00  0.222396184E+01  0.250971242E+01
   C  0.963134301E+00  0.222396184E+01  0.250971242E+01
   C -0.265416671E+01 -0.305167478E+00  0.251048030E+01
   C  0.265416671E+01 -0.305167478E+00  0.251048030E+01
   H -0.586055687E+01  0.937198416E+01  0.235971908E+01
   H  0.586055687E+01  0.937198416E+01  0.235971908E+01
   H -0.116312672E+02 -0.142238986E+01  0.242685606E+01
   H  0.116312672E+02 -0.142238986E+01  0.242685606E+01
  Xx  0.620989806E-16  0.199309596E-01 -0.134207103E+04
    11
 # iter = 29500  time[fs]=29.50000
   N -0.181687305E+01 -0.234195637E+01  0.250371080E+01
   N  0.181687305E+01 -0.234195637E+01  0.250371080E+01
   C -0.959215976E+00  0.223310298E+01  0.250983163E+01
   C  0.959215976E+00  0.223310298E+01  0.250983163E+01
   C -0.266558503E+01 -0.313858866E+00  0.251040241E+01
   C  0.266558503E+01 -0.313858866E+00  0.251040241E+01
   H -0.591670870E+01  0.945957804E+01  0.235816012E+01
   H  0.591670870E+01  0.945957804E+01  0.235816012E+01
   H -0.117410101E+02 -0.144206784E+01  0.242609252E+01
   H  0.117410101E+02 -0.144206784E+01  0.242609252E+01
  Xx  0.626361665E-16  0.201034554E-01 -0.135371266E+04
    11
 # iter = 29750  time[fs]=29.75000
   N -0.182979288E+01 -0.234854293E+01  0.250382895E+01
   N  0.182979288E+01 -0.234854293E+01  0.250382895E+01
   C -0.955094336E+00  0.224225759E+01  0.250994543E+01
   C  0.955094336E+00  0.224225759E+01  0.250994543E+01
   C -0.267696879E+01 -0.322690304E+00  0.251031432E+01
   C  0.267696879E+01 -0.322690304E+00  0.251031432E+01
   H -0.597299229E+01  0.954736413E+01  0.235659969E+01
   H  0.597299229E+01  0.954736413E+01  0.235659969E+01
   H -0.118509659E+02 -0.146181985E+01  0.242532866E+01
   H  0.118509659E+02 -0.146181985E+01  0.242532866E+01
  Xx  0.631733523E-16  0.202759511E-01 -0.136535429E+04
    11
 # iter = 30000  time[fs]=30.00000
   N -0.184269867E+01 -0.235497299E+01  0.250395005E+01
   N  0.184269867E+01 -0.235497299E+01  0.250395005E+01
   C -0.950749108E+00  0.225141250E+01  0.251007285E+01
   C  0.950749108E+00  0.225141250E+01  0.251007285E+01
   C -0.268835426E+01 -0.331665283E+00  0.251022175E+01
   C  0.268835426E+01 -0.331665283E+00  0.251022175E+01
   H -0.602940559E+01  0.963533938E+01  0.235503703E+01
   H  0.602940559E+01  0.963533938E+01  0.235503703E+01
   H -0.119611312E+02 -0.148164420E+01  0.242456431E+01
   H  0.119611312E+02 -0.148164420E+01  0.242456431E+01
  Xx  0.637105382E-16  0.204484469E-01 -0.137699592E+04
    11
 # iter = 30250  time[fs]=30.25000
   N -0.185561074E+01 -0.236126713E+01  0.250406688E+01
   N  0.185561074E+01 -0.236126713E+01  0.250406688E+01
   C -0.946204679E+00  0.226057292E+01  0.251018775E+01
   C  0.946204679E+00  0.226057292E+01  0.251018775E+01
   C -0.269969082E+01 -0.340783489E+00  0.251012636E+01
   C  0.269969082E+01 -0.340783489E+00  0.251012636E+01
   H -0.608594688E+01  0.972350117E+01  0.235347098E+01
   H  0.608594688E+01  0.972350117E+01  0.235347098E+01
   H -0.120715025E+02 -0.150154096E+01  0.242379896E+01
   H  0.120715025E+02 -0.150154096E+01  0.242379896E+01
  Xx  0.642477240E-16  0.206209427E-01 -0.138863755E+04
    11
 # iter = 30500  time[fs]=30.50000
   N -0.186853605E+01 -0.236744090E+01  0.250418361E+01
   N  0.186853605E+01 -0.236744090E+01  0.250418361E+01
   C -0.941481390E+00  0.226972503E+01  0.251030239E+01
   C  0.941481390E+00  0.226972503E+01  0.251030239E+01
   C -0.271100339E+01 -0.350032413E+00  0.251002898E+01
   C  0.271100339E+01 -0.350032413E+00  0.251002898E+01
   H -0.614261693E+01  0.981184912E+01  0.235190163E+01
   H  0.614261693E+01  0.981184912E+01  0.235190163E+01
   H -0.121820748E+02 -0.152151018E+01  0.242303258E+01
   H  0.121820748E+02 -0.152151018E+01  0.242303258E+01
  Xx  0.647849099E-16  0.207934384E-01 -0.140027918E+04
    11
 # iter = 30750  time[fs]=30.75000
   N -0.188151065E+01 -0.237351395E+01  0.250429641E+01
   N  0.188151065E+01 -0.237351395E+01  0.250429641E+01
   C -0.936572522E+00  0.227887864E+01  0.251042380E+01
   C  0.936572522E+00  0.227887864E+01  0.251042380E+01
   C -0.272224292E+01 -0.359391450E+00  0.250993476E+01
   C  0.272224292E+01 -0.359391450E+00  0.250993476E+01
   H -0.619941440E+01  0.990038056E+01  0.235032938E+01
   H  0.619941440E+01  0.990038056E+01  0.235032938E+01
   H -0.122928451E+02 -0.154155101E+01  0.242226536E+01
   H  0.122928451E+02 -0.154155101E+01  0.242226536E+01
  Xx  0.653220958E-16  0.209659342E-01 -0.141192081E+04
    11
 # iter = 31000  time[fs]=31.00000
   N -0.189455301E+01 -0.237949485E+01  0.250440922E+01
   N  0.189455301E+01 -0.237949485E+01  0.250440922E+01
   C -0.931463417E+00  0.228803138E+01  0.251054163E+01
   C  0.931463417E+00  0.228803138E+01  0.251054163E+01
   C -0.273342564E+01 -0.368876140E+00  0.250983946E+01
   C  0.273342564E+01 -0.368876140E+00  0.250983946E+01
   H -0.625633641E+01  0.998909238E+01  0.234875429E+01
   H  0.625633641E+01  0.998909238E+01  0.234875429E+01
   H -0.124038100E+02 -0.156166167E+01  0.242149710E+01
   H  0.124038100E+02 -0.156166167E+01  0.242149710E+01
  Xx  0.658592816E-16  0.211384300E-01 -0.142356244E+04
    11
 # iter = 31250  time[fs]=31.25000
   N -0.190768079E+01 -0.238538418E+01  0.250452511E+01
   N  0.190768079E+01 -0.238538418E+01  0.250452511E+01
   C -0.926130450E+00  0.229717776E+01  0.251065443E+01
   C  0.926130450E+00  0.229717776E+01  0.251065443E+01
   C -0.274456735E+01 -0.378494638E+00  0.250973174E+01
   C  0.274456735E+01 -0.378494638E+00  0.250973174E+01
   H -0.631337866E+01  0.100779803E+02  0.234717624E+01
   H  0.631337866E+01  0.100779803E+02  0.234717624E+01
   H -0.125149661E+02 -0.158183987E+01  0.242072783E+01
   H  0.125149661E+02 -0.158183987E+01  0.242072783E+01
  Xx  0.663964675E-16  0.213109258E-01 -0.143520407E+04
    11
 # iter = 31500  time[fs]=31.50000
   N -0.192088560E+01 -0.239117056E+01  0.250463837E+01
   N  0.192088560E+01 -0.239117056E+01  0.250463837E+01
   C -0.920588061E+00  0.230634703E+01  0.251076761E+01
   C  0.920588061E+00  0.230634703E+01  0.251076761E+01
   C -0.275565186E+01 -0.388249915E+00  0.250963060E+01
   C  0.275565186E+01 -0.388249915E+00  0.250963060E+01
   H -0.637053543E+01  0.101670381E+02  0.234559569E+01
   H  0.637053543E+01  0.101670381E+02  0.234559569E+01
   H -0.126263117E+02 -0.160208282E+01  0.241995796E+01
   H  0.126263117E+02 -0.160208282E+01  0.241995796E+01
  Xx  0.669336533E-16  0.214834215E-01 -0.144684570E+04
    11
 # iter = 31750  time[fs]=31.75000
   N -0.193416689E+01 -0.239687674E+01  0.250474207E+01
   N  0.193416689E+01 -0.239687674E+01  0.250474207E+01
   C -0.914835027E+00  0.231551458E+01  0.251087517E+01
   C  0.914835027E+00  0.231551458E+01  0.251087517E+01
   C -0.276671758E+01 -0.398152707E+00  0.250953429E+01
   C  0.276671758E+01 -0.398152707E+00  0.250953429E+01
   H -0.642780565E+01  0.102562636E+02  0.234401302E+01
   H  0.642780565E+01  0.102562636E+02  0.234401302E+01
   H -0.127378435E+02 -0.162238974E+01  0.241918742E+01
   H  0.127378435E+02 -0.162238974E+01  0.241918742E+01
  Xx  0.674708392E-16  0.216559173E-01 -0.145848734E+04
    11
 # iter = 32000  time[fs]=32.00000
   N -0.194753977E+01 -0.240250148E+01  0.250482665E+01
   N  0.194753977E+01 -0.240250148E+01  0.250482665E+01
   C -0.908892142E+00  0.232469593E+01  0.251097423E+01
   C  0.908892142E+00  0.232469593E+01  0.251097423E+01
   C -0.277773216E+01 -0.408196129E+00  0.250944926E+01
   C  0.277773216E+01 -0.408196129E+00  0.250944926E+01
   H -0.648518977E+01  0.103456553E+02  0.234242834E+01
   H  0.648518977E+01  0.103456553E+02  0.234242834E+01
   H -0.128495568E+02 -0.164276091E+01  0.241841614E+01
   H  0.128495568E+02 -0.164276091E+01  0.241841614E+01
  Xx  0.680080250E-16  0.218284131E-01 -0.147012897E+04
    11
 # iter = 32250  time[fs]=32.25000
   N -0.196100662E+01 -0.240805436E+01  0.250489696E+01
   N  0.196100662E+01 -0.240805436E+01  0.250489696E+01
   C -0.902771744E+00  0.233387869E+01  0.251108474E+01
   C  0.902771744E+00  0.233387869E+01  0.251108474E+01
   C -0.278867636E+01 -0.418387689E+00  0.250937990E+01
   C  0.278867636E+01 -0.418387689E+00  0.250937990E+01
   H -0.654268662E+01  0.104352110E+02  0.234084186E+01
   H  0.654268662E+01  0.104352110E+02  0.234084186E+01
   H -0.129614479E+02 -0.166319571E+01  0.241764432E+01
   H  0.129614479E+02 -0.166319571E+01  0.241764432E+01
  Xx  0.685452109E-16  0.220009088E-01 -0.148177060E+04
    11
 # iter = 32500  time[fs]=32.50000
   N -0.197458109E+01 -0.241354986E+01  0.250496360E+01
   N  0.197458109E+01 -0.241354986E+01  0.250496360E+01
   C -0.896452918E+00  0.234307900E+01  0.251118067E+01
   C  0.896452918E+00  0.234307900E+01  0.251118067E+01
   C -0.279955384E+01 -0.428732400E+00  0.250930698E+01
   C  0.279955384E+01 -0.428732400E+00  0.250930698E+01
   H -0.660029342E+01  0.105249272E+02  0.233925276E+01
   H  0.660029342E+01  0.105249272E+02  0.233925276E+01
   H -0.130735141E+02 -0.168369276E+01  0.241687154E+01
   H  0.130735141E+02 -0.168369276E+01  0.241687154E+01
  Xx  0.690823967E-16  0.221734046E-01 -0.149341223E+04
    11
 # iter = 32750  time[fs]=32.75000
   N -0.198823785E+01 -0.241897558E+01  0.250502729E+01
   N  0.198823785E+01 -0.241897558E+01  0.250502729E+01
   C -0.889934189E+00  0.235229008E+01  0.251127593E+01
   C  0.889934189E+00  0.235229008E+01  0.251127593E+01
   C -0.281034493E+01 -0.439229846E+00  0.250922835E+01
   C  0.281034493E+01 -0.439229846E+00  0.250922835E+01
   H -0.665800713E+01  0.106148010E+02  0.233766092E+01
   H  0.665800713E+01  0.106148010E+02  0.233766092E+01
   H -0.131857534E+02 -0.170425044E+01  0.241609779E+01
   H  0.131857534E+02 -0.170425044E+01  0.241609779E+01
  Xx  0.696195826E-16  0.223459004E-01 -0.150505386E+04
    11
 # iter = 33000  time[fs]=33.00000
   N -0.200196460E+01 -0.242435484E+01  0.250509140E+01
   N  0.200196460E+01 -0.242435484E+01  0.250509140E+01
   C -0.883191330E+00  0.236152918E+01  0.251137397E+01
   C  0.883191330E+00  0.236152918E+01  0.251137397E+01
   C -0.282107073E+01 -0.449883072E+00  0.250915217E+01
   C  0.282107073E+01 -0.449883072E+00  0.250915217E+01
   H -0.671582536E+01  0.107048295E+02  0.233606631E+01
   H  0.671582536E+01  0.107048295E+02  0.233606631E+01
   H -0.132981645E+02 -0.172486744E+01  0.241532294E+01
   H  0.132981645E+02 -0.172486744E+01  0.241532294E+01
  Xx  0.701567685E-16  0.225183961E-01 -0.151669549E+04
    11
 # iter = 33250  time[fs]=33.25000
   N -0.201571258E+01 -0.242966612E+01  0.250515613E+01
   N  0.201571258E+01 -0.242966612E+01  0.250515613E+01
   C -0.876240252E+00  0.237078056E+01  0.251147001E+01
   C  0.876240252E+00  0.237078056E+01  0.251147001E+01
   C -0.283177354E+01 -0.460706163E+00  0.250906709E+01
   C  0.283177354E+01 -0.460706163E+00  0.250906709E+01
   H -0.677374629E+01  0.107950092E+02  0.233446880E+01
   H  0.677374629E+01  0.107950092E+02  0.233446880E+01
   H -0.134107428E+02 -0.174554252E+01  0.241454697E+01
   H  0.134107428E+02 -0.174554252E+01  0.241454697E+01
  Xx  0.706939543E-16  0.226908919E-01 -0.152833712E+04
    11
 # iter = 33500  time[fs]=33.50000
   N -0.202946710E+01 -0.243491056E+01  0.250521520E+01
   N  0.202946710E+01 -0.243491056E+01  0.250521520E+01
   C -0.869086183E+00  0.238005078E+01  0.251155396E+01
   C  0.869086183E+00  0.238005078E+01  0.251155396E+01
   C -0.284240163E+01 -0.471693209E+00  0.250899137E+01
   C  0.284240163E+01 -0.471693209E+00  0.250899137E+01
   H -0.683176936E+01  0.108853400E+02  0.233286829E+01
   H  0.683176936E+01  0.108853400E+02  0.233286829E+01
   H -0.135234852E+02 -0.176627540E+01  0.241376989E+01
   H  0.135234852E+02 -0.176627540E+01  0.241376989E+01
  Xx  0.712311402E-16  0.228633877E-01 -0.153997875E+04
    11
 # iter = 33750  time[fs]=33.75000
   N -0.204321861E+01 -0.244009580E+01  0.250527125E+01
   N  0.204321861E+01 -0.244009580E+01  0.250527125E+01
   C -0.861712334E+00  0.238933430E+01  0.251164796E+01
   C  0.861712334E+00  0.238933430E+01  0.251164796E+01
   C -0.285299084E+01 -0.482846128E+00  0.250891078E+01
   C  0.285299084E+01 -0.482846128E+00  0.250891078E+01
   H -0.688989289E+01  0.109758185E+02  0.233126484E+01
   H  0.688989289E+01  0.109758185E+02  0.233126484E+01
   H -0.136363883E+02 -0.178706511E+01  0.241299170E+01
   H  0.136363883E+02 -0.178706511E+01  0.241299170E+01
  Xx  0.717683260E-16  0.230358834E-01 -0.155162038E+04
    11
 # iter = 34000  time[fs]=34.00000
   N -0.205696914E+01 -0.244523563E+01  0.250532577E+01
   N  0.205696914E+01 -0.244523563E+01  0.250532577E+01
   C -0.854135933E+00  0.239863657E+01  0.251173220E+01
   C  0.854135933E+00  0.239863657E+01  0.251173220E+01
   C -0.286351150E+01 -0.494147264E+00  0.250882709E+01
   C  0.286351150E+01 -0.494147264E+00  0.250882709E+01
   H -0.694811482E+01  0.110664426E+02  0.232965818E+01
   H  0.694811482E+01  0.110664426E+02  0.232965818E+01
   H -0.137494510E+02 -0.180791059E+01  0.241221245E+01
   H  0.137494510E+02 -0.180791059E+01  0.241221245E+01
  Xx  0.723055119E-16  0.232083792E-01 -0.156326201E+04
    11
 # iter = 34250  time[fs]=34.25000
   N -0.207074293E+01 -0.245032551E+01  0.250537750E+01
   N  0.207074293E+01 -0.245032551E+01  0.250537750E+01
   C -0.846330288E+00  0.240796428E+01  0.251182156E+01
   C  0.846330288E+00  0.240796428E+01  0.251182156E+01
   C -0.287393958E+01 -0.505582241E+00  0.250874998E+01
   C  0.287393958E+01 -0.505582241E+00  0.250874998E+01
   H -0.700643363E+01  0.111572097E+02  0.232804903E+01
   H  0.700643363E+01  0.111572097E+02  0.232804903E+01
   H -0.138626702E+02 -0.182881087E+01  0.241143271E+01
   H  0.138626702E+02 -0.182881087E+01  0.241143271E+01
  Xx  0.728426977E-16  0.233808750E-01 -0.157490364E+04
    11
 # iter = 34500  time[fs]=34.50000
   N -0.208451801E+01 -0.245535955E+01  0.250543058E+01
   N  0.208451801E+01 -0.245535955E+01  0.250543058E+01
   C -0.838302834E+00  0.241730363E+01  0.251190997E+01
   C  0.838302834E+00  0.241730363E+01  0.251190997E+01
   C -0.288431305E+01 -0.517194471E+00  0.250865546E+01
   C  0.288431305E+01 -0.517194471E+00  0.250865546E+01
   H -0.706484955E+01  0.112481188E+02  0.232643781E+01
   H  0.706484955E+01  0.112481188E+02  0.232643781E+01
   H -0.139760427E+02 -0.184976602E+01  0.241065254E+01
   H  0.139760427E+02 -0.184976602E+01  0.241065254E+01
  Xx  0.733798836E-16  0.235533708E-01 -0.158654527E+04
    11
 # iter = 34750  time[fs]=34.75000
   N -0.209830834E+01 -0.246032056E+01  0.250547834E+01
   N  0.209830834E+01 -0.246032056E+01  0.250547834E+01
   C -0.830082987E+00  0.242667196E+01  0.251199880E+01
   C  0.830082987E+00  0.242667196E+01  0.251199880E+01
   C -0.289460018E+01 -0.528937425E+00  0.250855681E+01
   C  0.289460018E+01 -0.528937425E+00  0.250855681E+01
   H -0.712336131E+01  0.113391670E+02  0.232482494E+01
   H  0.712336131E+01  0.113391670E+02  0.232482494E+01
   H -0.140895660E+02 -0.187077488E+01  0.240987237E+01
   H  0.140895660E+02 -0.187077488E+01  0.240987237E+01
  Xx  0.739170694E-16  0.237258665E-01 -0.159818690E+04
    11
 # iter = 35000  time[fs]=35.00000
   N -0.211207288E+01 -0.246520895E+01  0.250552515E+01
   N  0.211207288E+01 -0.246520895E+01  0.250552515E+01
   C -0.821660125E+00  0.243605101E+01  0.251208551E+01
   C  0.821660125E+00  0.243605101E+01  0.251208551E+01
   C -0.290487669E+01 -0.540851043E+00  0.250845248E+01
   C  0.290487669E+01 -0.540851043E+00  0.250845248E+01
   H -0.718196859E+01  0.114303528E+02  0.232321058E+01
   H  0.718196859E+01  0.114303528E+02  0.232321058E+01
   H -0.142032372E+02 -0.189183744E+01  0.240909221E+01
   H  0.142032372E+02 -0.189183744E+01  0.240909221E+01
  Xx  0.744542553E-16  0.238983623E-01 -0.160982853E+04
    11
 # iter = 35250  time[fs]=35.25000
   N -0.212583977E+01 -0.247000886E+01  0.250555867E+01
   N  0.212583977E+01 -0.247000886E+01  0.250555867E+01
   C -0.813031287E+00  0.244545881E+01  0.251217374E+01
   C  0.813031287E+00  0.244545881E+01  0.251217374E+01
   C -0.291512000E+01 -0.552912334E+00  0.250835191E+01
   C  0.291512000E+01 -0.552912334E+00  0.250835191E+01
   H -0.724066975E+01  0.115216742E+02  0.232159465E+01
   H  0.724066975E+01  0.115216742E+02  0.232159465E+01
   H -0.143170539E+02 -0.191295259E+01  0.240831204E+01
   H  0.143170539E+02 -0.191295259E+01  0.240831204E+01
  Xx  0.749914412E-16  0.240708581E-01 -0.162147016E+04
    11
 # iter = 35500  time[fs]=35.50000
   N -0.213965884E+01 -0.247471286E+01  0.250558234E+01
   N  0.213965884E+01 -0.247471286E+01  0.250558234E+01
   C -0.804198525E+00  0.245488479E+01  0.251226150E+01
   C  0.804198525E+00  0.245488479E+01  0.251226150E+01
   C -0.292529415E+01 -0.565134263E+00  0.250826261E+01
   C  0.292529415E+01 -0.565134263E+00  0.250826261E+01
   H -0.729946253E+01  0.116131292E+02  0.231997706E+01
   H  0.729946253E+01  0.116131292E+02  0.231997706E+01
   H -0.144310137E+02 -0.193411928E+01  0.240753178E+01
   H  0.144310137E+02 -0.193411928E+01  0.240753178E+01
  Xx  0.755286270E-16  0.242433538E-01 -0.163311179E+04
    11
 # iter = 35750  time[fs]=35.75000
   N -0.215356561E+01 -0.247933139E+01  0.250560151E+01
   N  0.215356561E+01 -0.247933139E+01  0.250560151E+01
   C -0.795155624E+00  0.246433916E+01  0.251234637E+01
   C  0.795155624E+00  0.246433916E+01  0.251234637E+01
   C -0.293543052E+01 -0.577522371E+00  0.250816628E+01
   C  0.293543052E+01 -0.577522371E+00  0.250816628E+01
   H -0.735834511E+01  0.117047154E+02  0.231835738E+01
   H  0.735834511E+01  0.117047154E+02  0.231835738E+01
   H -0.145451158E+02 -0.195533640E+01  0.240675113E+01
   H  0.145451158E+02 -0.195533640E+01  0.240675113E+01
  Xx  0.760658129E-16  0.244158496E-01 -0.164475342E+04
    11
 # iter = 36000  time[fs]=36.00000
   N -0.216760000E+01 -0.248386750E+01  0.250561897E+01
   N  0.216760000E+01 -0.248386750E+01  0.250561897E+01
   C -0.785917904E+00  0.247381127E+01  0.251243270E+01
   C  0.785917904E+00  0.247381127E+01  0.251243270E+01
   C -0.294545054E+01 -0.590033663E+00  0.250806207E+01
   C  0.294545054E+01 -0.590033663E+00  0.250806207E+01
   H -0.741731523E+01  0.117964304E+02  0.231673565E+01
   H  0.741731523E+01  0.117964304E+02  0.231673565E+01
   H -0.146593582E+02 -0.197660315E+01  0.240596972E+01
   H  0.146593582E+02 -0.197660315E+01  0.240596972E+01
  Xx  0.766029987E-16  0.245883454E-01 -0.165639505E+04
    11
 # iter = 36250  time[fs]=36.25000
   N -0.218173590E+01 -0.248830375E+01  0.250563287E+01
   N  0.218173590E+01 -0.248830375E+01  0.250563287E+01
   C -0.776500662E+00  0.248331294E+01  0.251250806E+01
   C  0.776500662E+00  0.248331294E+01  0.251250806E+01
   C -0.295542395E+01 -0.602715072E+00  0.250795909E+01
   C  0.295542395E+01 -0.602715072E+00  0.250795909E+01
   H -0.747637160E+01  0.118882721E+02  0.231511160E+01
   H  0.747637160E+01  0.118882721E+02  0.231511160E+01
   H -0.147737383E+02 -0.199791888E+01  0.240518729E+01
   H  0.147737383E+02 -0.199791888E+01  0.240518729E+01
  Xx  0.771401846E-16  0.247608411E-01 -0.166803668E+04
    11
 # iter = 36500  time[fs]=36.50000
   N -0.219600681E+01 -0.249262183E+01  0.250562635E+01
   N  0.219600681E+01 -0.249262183E+01  0.250562635E+01
   C -0.766906176E+00  0.249283993E+01  0.251259177E+01
   C  0.766906176E+00  0.249283993E+01  0.251259177E+01
   C -0.296534697E+01 -0.615564018E+00  0.250786490E+01
   C  0.296534697E+01 -0.615564018E+00  0.250786490E+01
   H -0.753551183E+01  0.119802374E+02  0.231348514E+01
   H  0.753551183E+01  0.119802374E+02  0.231348514E+01
   H -0.148882533E+02 -0.201928197E+01  0.240440374E+01
   H  0.148882533E+02 -0.201928197E+01  0.240440374E+01
  Xx  0.776773704E-16  0.249333369E-01 -0.167967831E+04
    11
 # iter = 36750  time[fs]=36.75000
   N -0.221036337E+01 -0.249681304E+01  0.250561094E+01
   N  0.221036337E+01 -0.249681304E+01  0.250561094E+01
   C -0.757157904E+00  0.250238569E+01  0.251267227E+01
   C  0.757157904E+00  0.250238569E+01  0.251267227E+01
   C -0.297523055E+01 -0.628595048E+00  0.250777749E+01
   C  0.297523055E+01 -0.628595048E+00  0.250777749E+01
   H -0.759473527E+01  0.120723250E+02  0.231185620E+01
   H  0.759473527E+01  0.120723250E+02  0.231185620E+01
   H -0.150029016E+02 -0.204069203E+01  0.240361909E+01
   H  0.150029016E+02 -0.204069203E+01  0.240361909E+01
  Xx  0.782145563E-16  0.251058327E-01 -0.169131994E+04
    11
 # iter = 37000  time[fs]=37.00000
   N -0.222480506E+01 -0.250087428E+01  0.250559531E+01
   N  0.222480506E+01 -0.250087428E+01  0.250559531E+01
   C -0.747287226E+00  0.251194730E+01  0.251275190E+01
   C  0.747287226E+00  0.251194730E+01  0.251275190E+01
   C -0.298509637E+01 -0.641795973E+00  0.250768131E+01
   C  0.298509637E+01 -0.641795973E+00  0.250768131E+01
   H -0.765404125E+01  0.121645329E+02  0.231022471E+01
   H  0.765404125E+01  0.121645329E+02  0.231022471E+01
   H -0.151176808E+02 -0.206214884E+01  0.240283332E+01
   H  0.151176808E+02 -0.206214884E+01  0.240283332E+01
  Xx  0.787517421E-16  0.252783284E-01 -0.170296157E+04
    11
 # iter = 37250  time[fs]=37.25000
   N -0.223934753E+01 -0.250481725E+01  0.250559032E+01
   N  0.223934753E+01 -0.250481725E+01  0.250559032E+01
   C -0.737323697E+00  0.252152476E+01  0.251282185E+01
   C  0.737323697E+00  0.252152476E+01  0.251282185E+01
   C -0.299486558E+01 -0.655172866E+00  0.250756569E+01
   C  0.299486558E+01 -0.655172866E+00  0.250756569E+01
   H -0.771342939E+01  0.122568607E+02  0.230859069E+01
   H  0.771342939E+01  0.122568607E+02  0.230859069E+01
   H -0.152325886E+02 -0.208365218E+01  0.240204651E+01
   H  0.152325886E+02 -0.208365218E+01  0.240204651E+01
  Xx  0.792889280E-16  0.254508242E-01 -0.171460320E+04
    11
 # iter = 37500  time[fs]=37.50000
   N -0.225397589E+01 -0.250861885E+01  0.250558313E+01
   N  0.225397589E+01 -0.250861885E+01  0.250558313E+01
   C -0.727274010E+00  0.253110889E+01  0.251290150E+01
   C  0.727274010E+00  0.253110889E+01  0.251290150E+01
   C -0.300456709E+01 -0.668722014E+00  0.250745101E+01
   C  0.300456709E+01 -0.668722014E+00  0.250745101E+01
   H -0.777289878E+01  0.123493065E+02  0.230695467E+01
   H  0.777289878E+01  0.123493065E+02  0.230695467E+01
   H -0.153476237E+02 -0.210520123E+01  0.240125909E+01
   H  0.153476237E+02 -0.210520123E+01  0.240125909E+01
  Xx  0.798261139E-16  0.256233200E-01 -0.172624483E+04
    11
 # iter = 37750  time[fs]=37.75000
   N -0.226866998E+01 -0.251229325E+01  0.250557341E+01
   N  0.226866998E+01 -0.251229325E+01  0.250557341E+01
   C -0.717155225E+00  0.254069403E+01  0.251297839E+01
   C  0.717155225E+00  0.254069403E+01  0.251297839E+01
   C -0.301419071E+01 -0.682450884E+00  0.250733443E+01
   C  0.301419071E+01 -0.682450884E+00  0.250733443E+01
   H -0.783244811E+01  0.124418677E+02  0.230531679E+01
   H  0.783244811E+01  0.124418677E+02  0.230531679E+01
   H -0.154627838E+02 -0.212679552E+01  0.240047131E+01
   H  0.154627838E+02 -0.212679552E+01  0.240047131E+01
  Xx  0.803632997E-16  0.257958158E-01 -0.173788646E+04
    11
 # iter = 38000  time[fs]=38.00000
   N -0.228334573E+01 -0.251581453E+01  0.250556206E+01
   N  0.228334573E+01 -0.251581453E+01  0.250556206E+01
   C -0.706994606E+00  0.255029051E+01  0.251305063E+01
   C  0.706994606E+00  0.255029051E+01  0.251305063E+01
   C -0.302376953E+01 -0.696377671E+00  0.250722091E+01
   C  0.302376953E+01 -0.696377671E+00  0.250722091E+01
   H -0.789207677E+01  0.125345443E+02  0.230367714E+01
   H  0.789207677E+01  0.125345443E+02  0.230367714E+01
   H -0.155780677E+02 -0.214843426E+01  0.239968353E+01
   H  0.155780677E+02 -0.214843426E+01  0.239968353E+01
  Xx  0.809004856E-16  0.259683115E-01 -0.174952809E+04
    11
 # iter = 38250  time[fs]=38.25000
   N -0.229802710E+01 -0.251917984E+01  0.250553619E+01
   N  0.229802710E+01 -0.251917984E+01  0.250553619E+01
   C -0.696815623E+00  0.255987647E+01  0.251312272E+01
   C  0.696815623E+00  0.255987647E+01  0.251312272E+01
   C -0.303331623E+01 -0.710506385E+00  0.250711791E+01
   C  0.303331623E+01 -0.710506385E+00  0.250711791E+01
   H -0.795178429E+01  0.126273344E+02  0.230203590E+01
   H  0.795178429E+01  0.126273344E+02  0.230203590E+01
   H -0.156934721E+02 -0.217011687E+01  0.239889575E+01
   H  0.156934721E+02 -0.217011687E+01  0.239889575E+01
  Xx  0.814376714E-16  0.261408073E-01 -0.176116972E+04
    11
 # iter = 38500  time[fs]=38.50000
   N -0.231270344E+01 -0.252240985E+01  0.250550942E+01
   N  0.231270344E+01 -0.252240985E+01  0.250550942E+01
   C -0.686656051E+00  0.256946701E+01  0.251319080E+01
   C  0.686656051E+00  0.256946701E+01  0.251319080E+01
   C -0.304277952E+01 -0.724835722E+00  0.250700990E+01
   C  0.304277952E+01 -0.724835722E+00  0.250700990E+01
   H -0.801156954E+01  0.127202354E+02  0.230039309E+01
   H  0.801156954E+01  0.127202354E+02  0.230039309E+01
   H -0.158089957E+02 -0.219184334E+01  0.239810797E+01
   H  0.158089957E+02 -0.219184334E+01  0.239810797E+01
  Xx  0.819748573E-16  0.263133031E-01 -0.177281135E+04
    11
 # iter = 38750  time[fs]=38.75000
   N -0.232737004E+01 -0.252548545E+01  0.250548724E+01
   N  0.232737004E+01 -0.252548545E+01  0.250548724E+01
   C -0.676558146E+00  0.257903824E+01  0.251326631E+01
   C  0.676558146E+00  0.257903824E+01  0.251326631E+01
   C -0.305217078E+01 -0.739348749E+00  0.250689079E+01
   C  0.305217078E+01 -0.739348749E+00  0.250689079E+01
   H -0.807143115E+01  0.128132474E+02  0.229874890E+01
   H  0.807143115E+01  0.128132474E+02  0.229874890E+01
   H -0.159246352E+02 -0.221361327E+01  0.239732013E+01
   H  0.159246352E+02 -0.221361327E+01  0.239732013E+01
  Xx  0.825120431E-16  0.264857988E-01 -0.178445298E+04
    11
 # iter = 39000  time[fs]=39.00000
   N -0.234207257E+01 -0.252843056E+01  0.250546567E+01
   N  0.234207257E+01 -0.252843056E+01  0.250546567E+01
   C -0.666565605E+00  0.258860664E+01  0.251333281E+01
   C  0.666565605E+00  0.258860664E+01  0.251333281E+01
   C -0.306147146E+01 -0.754049550E+00  0.250676264E+01
   C  0.306147146E+01 -0.754049550E+00  0.250676264E+01
   H -0.813136826E+01  0.129063693E+02  0.229710299E+01
   H  0.813136826E+01  0.129063693E+02  0.229710299E+01
   H -0.160403902E+02 -0.223542610E+01  0.239653199E+01
   H  0.160403902E+02 -0.223542610E+01  0.239653199E+01
  Xx  0.830492290E-16  0.266582946E-01 -0.179609462E+04
    11
 # iter = 39250  time[fs]=39.25000
   N -0.235675317E+01 -0.253121957E+01  0.250542760E+01
   N  0.235675317E+01 -0.253121957E+01  0.250542760E+01
   C -0.656719601E+00  0.259817096E+01  0.251340316E+01
   C  0.656719601E+00  0.259817096E+01  0.251340316E+01
   C -0.307071482E+01 -0.768953457E+00  0.250665269E+01
   C  0.307071482E+01 -0.768953457E+00  0.250665269E+01
   H -0.819138086E+01  0.129995980E+02  0.229545580E+01
   H  0.819138086E+01  0.129995980E+02  0.229545580E+01
   H -0.161562606E+02 -0.225728110E+01  0.239574380E+01
   H  0.161562606E+02 -0.225728110E+01  0.239574380E+01
  Xx  0.835864149E-16  0.268307904E-01 -0.180773625E+04
    11
 # iter = 39500  time[fs]=39.50000
   N -0.237144224E+01 -0.253384193E+01  0.250537709E+01
   N  0.237144224E+01 -0.253384193E+01  0.250537709E+01
   C -0.647070254E+00  0.260771640E+01  0.251347078E+01
   C  0.647070254E+00  0.260771640E+01  0.251347078E+01
   C -0.307993101E+01 -0.784050139E+00  0.250654876E+01
   C  0.307993101E+01 -0.784050139E+00  0.250654876E+01
   H -0.825146752E+01  0.130929332E+02  0.229380702E+01
   H  0.825146752E+01  0.130929332E+02  0.229380702E+01
   H -0.162722465E+02 -0.227917747E+01  0.239495535E+01
   H  0.162722465E+02 -0.227917747E+01  0.239495535E+01
  Xx  0.841236007E-16  0.270032861E-01 -0.181937788E+04
    11
 # iter = 39750  time[fs]=39.75000
   N -0.238618699E+01 -0.253632498E+01  0.250533118E+01
   N  0.238618699E+01 -0.253632498E+01  0.250533118E+01
   C -0.637680996E+00  0.261725620E+01  0.251353417E+01
   C  0.637680996E+00  0.261725620E+01  0.251353417E+01
   C -0.308906879E+01 -0.799342527E+00  0.250642755E+01
   C  0.308906879E+01 -0.799342527E+00  0.250642755E+01
   H -0.831162553E+01  0.131863738E+02  0.229215673E+01
   H  0.831162553E+01  0.131863738E+02  0.229215673E+01
   H -0.163883430E+02 -0.230111473E+01  0.239416644E+01
   H  0.163883430E+02 -0.230111473E+01  0.239416644E+01
  Xx  0.846607866E-16  0.271757819E-01 -0.183101951E+04
    11
 # iter = 40000  time[fs]=40.00000
   N -0.240100947E+01 -0.253864833E+01  0.250527697E+01
   N  0.240100947E+01 -0.253864833E+01  0.250527697E+01
   C -0.628613044E+00  0.262678317E+01  0.251360040E+01
   C  0.628613044E+00  0.262678317E+01  0.251360040E+01
   C -0.309813741E+01 -0.814805886E+00  0.250631390E+01
   C  0.309813741E+01 -0.814805886E+00  0.250631390E+01
   H -0.837185460E+01  0.132799166E+02  0.229050525E+01
   H  0.837185460E+01  0.132799166E+02  0.229050525E+01
   H -0.165045460E+02 -0.232309204E+01  0.239337727E+01
   H  0.165045460E+02 -0.232309204E+01  0.239337727E+01
  Xx  0.851979724E-16  0.273482777E-01 -0.184266114E+04
    11
 # iter = 40250  time[fs]=40.25000
   N -0.241596136E+01 -0.254083426E+01  0.250522283E+01
   N  0.241596136E+01 -0.254083426E+01  0.250522283E+01
   C -0.619930718E+00  0.263631484E+01  0.251365951E+01
   C  0.619930718E+00  0.263631484E+01  0.251365951E+01
   C -0.310711248E+01 -0.830440643E+00  0.250619542E+01
   C  0.310711248E+01 -0.830440643E+00  0.250619542E+01
   H -0.843215472E+01  0.133735602E+02  0.228885267E+01
   H  0.843215472E+01  0.133735602E+02  0.228885267E+01
   H -0.166208555E+02 -0.234510856E+01  0.239258798E+01
   H  0.166208555E+02 -0.234510856E+01  0.239258798E+01
  Xx  0.857351583E-16  0.275207734E-01 -0.185430277E+04
    11
 # iter = 40500  time[fs]=40.50000
   N -0.243099911E+01 -0.254285242E+01  0.250516418E+01
   N  0.243099911E+01 -0.254285242E+01  0.250516418E+01
   C -0.611705898E+00  0.264583378E+01  0.251372210E+01
   C  0.611705898E+00  0.264583378E+01  0.251372210E+01
   C -0.311602795E+01 -0.846265542E+00  0.250607918E+01
   C  0.311602795E+01 -0.846265542E+00  0.250607918E+01
   H -0.849252470E+01  0.134673017E+02  0.228719897E+01
   H  0.849252470E+01  0.134673017E+02  0.228719897E+01
   H -0.167372717E+02 -0.236716360E+01  0.239179858E+01
   H  0.167372717E+02 -0.236716360E+01  0.239179858E+01
  Xx  0.862723441E-16  0.276932692E-01 -0.186594440E+04
    11
 # iter = 40750  time[fs]=40.75000
   N -0.244613010E+01 -0.254468715E+01  0.250508216E+01
   N  0.244613010E+01 -0.254468715E+01  0.250508216E+01
   C -0.604002276E+00  0.265534934E+01  0.251377872E+01
   C  0.604002276E+00  0.265534934E+01  0.251377872E+01
   C -0.312492758E+01 -0.862286123E+00  0.250598267E+01
   C  0.312492758E+01 -0.862286123E+00  0.250598267E+01
   H -0.855296146E+01  0.135611409E+02  0.228554416E+01
   H  0.855296146E+01  0.135611409E+02  0.228554416E+01
   H -0.168537945E+02 -0.238925674E+01  0.239100897E+01
   H  0.168537945E+02 -0.238925674E+01  0.239100897E+01
  Xx  0.868095300E-16  0.278657650E-01 -0.187758603E+04
    11
 # iter = 41000  time[fs]=41.00000
   N -0.246138856E+01 -0.254637225E+01  0.250501580E+01
   N  0.246138856E+01 -0.254637225E+01  0.250501580E+01
   C -0.596901938E+00  0.266486673E+01  0.251383713E+01
   C  0.596901938E+00  0.266486673E+01  0.251383713E+01
   C -0.313376148E+01 -0.878504812E+00  0.250585608E+01
   C  0.313376148E+01 -0.878504812E+00  0.250585608E+01
   H -0.861346483E+01  0.136550770E+02  0.228388793E+01
   H  0.861346483E+01  0.136550770E+02  0.228388793E+01
   H -0.169704238E+02 -0.241138768E+01  0.239021875E+01
   H  0.169704238E+02 -0.241138768E+01  0.239021875E+01
  Xx  0.873467158E-16  0.280382607E-01 -0.188922766E+04
    11
 # iter = 41250  time[fs]=41.25000
   N -0.247676310E+01 -0.254788052E+01  0.250494427E+01
   N  0.247676310E+01 -0.254788052E+01  0.250494427E+01
   C -0.590486464E+00  0.267437451E+01  0.251389835E+01
   C  0.590486464E+00  0.267437451E+01  0.251389835E+01
   C -0.314251444E+01 -0.894897967E+00  0.250573193E+01
   C  0.314251444E+01 -0.894897967E+00  0.250573193E+01
   H -0.867403480E+01  0.137491072E+02  0.228223018E+01
   H  0.867403480E+01  0.137491072E+02  0.228223018E+01
   H -0.170871559E+02 -0.243355563E+01  0.238942806E+01
   H  0.170871559E+02 -0.243355563E+01  0.238942806E+01
  Xx  0.878839017E-16  0.282107565E-01 -0.190086929E+04
    11
 # iter = 41500  time[fs]=41.50000
   N -0.249224520E+01 -0.254921081E+01  0.250485922E+01
   N  0.249224520E+01 -0.254921081E+01  0.250485922E+01
   C -0.584823736E+00  0.268389347E+01  0.251395327E+01
   C  0.584823736E+00  0.268389347E+01  0.251395327E+01
   C -0.315118930E+01 -0.911473082E+00  0.250561928E+01
   C  0.315118930E+01 -0.911473082E+00  0.250561928E+01
   H -0.873467011E+01  0.138432308E+02  0.228057096E+01
   H  0.873467011E+01  0.138432308E+02  0.228057096E+01
   H -0.172039858E+02 -0.245576002E+01  0.238863697E+01
   H  0.172039858E+02 -0.245576002E+01  0.238863697E+01
  Xx  0.884210876E-16  0.283832523E-01 -0.191251092E+04
    11
 # iter = 41750  time[fs]=41.75000
   N -0.250777363E+01 -0.255038118E+01  0.250477325E+01
   N  0.250777363E+01 -0.255038118E+01  0.250477325E+01
   C -0.579981444E+00  0.269340690E+01  0.251401420E+01
   C  0.579981444E+00  0.269340690E+01  0.251401420E+01
   C -0.315981014E+01 -0.928263076E+00  0.250550226E+01
   C  0.315981014E+01 -0.928263076E+00  0.250550226E+01
   H -0.879537052E+01  0.139374476E+02  0.227891063E+01
   H  0.879537052E+01  0.139374476E+02  0.227891063E+01
   H -0.173209133E+02 -0.247800070E+01  0.238784588E+01
   H  0.173209133E+02 -0.247800070E+01  0.238784588E+01
  Xx  0.889582734E-16  0.285557481E-01 -0.192415255E+04
    11
 # iter = 42000  time[fs]=42.00000
   N -0.252331573E+01 -0.255135545E+01  0.250467352E+01
   N  0.252331573E+01 -0.255135545E+01  0.250467352E+01
   C -0.576036046E+00  0.270291738E+01  0.251407257E+01
   C  0.576036046E+00  0.270291738E+01  0.251407257E+01
   C -0.316843474E+01 -0.945250402E+00  0.250539508E+01
   C  0.316843474E+01 -0.945250402E+00  0.250539508E+01
   H -0.885613320E+01  0.140317576E+02  0.227724919E+01
   H  0.885613320E+01  0.140317576E+02  0.227724919E+01
   H -0.174379385E+02 -0.250027696E+01  0.238705479E+01
   H  0.174379385E+02 -0.250027696E+01  0.238705479E+01
  Xx  0.894954593E-16  0.287282438E-01 -0.193579418E+04
    11
 # iter = 42250  time[fs]=42.25000
   N -0.253888816E+01 -0.255216412E+01  0.250459192E+01
   N  0.253888816E+01 -0.255216412E+01  0.250459192E+01
   C -0.573056543E+00  0.271243482E+01  0.251412577E+01
   C  0.573056543E+00  0.271243482E+01  0.251412577E+01
   C -0.317698442E+01 -0.962415352E+00  0.250525899E+01
   C  0.317698442E+01 -0.962415352E+00  0.250525899E+01
   H -0.891695806E+01  0.141261577E+02  0.227558663E+01
   H  0.891695806E+01  0.141261577E+02  0.227558663E+01
   H -0.175550615E+02 -0.252258831E+01  0.238626371E+01
   H  0.175550615E+02 -0.252258831E+01  0.238626371E+01
  Xx  0.900326451E-16  0.289007396E-01 -0.194743581E+04
    11
 # iter = 42500  time[fs]=42.50000
   N -0.255449435E+01 -0.255282844E+01  0.250449794E+01
   N  0.255449435E+01 -0.255282844E+01  0.250449794E+01
   C -0.571079314E+00  0.272194733E+01  0.251418398E+01
   C  0.571079314E+00  0.272194733E+01  0.251418398E+01
   C -0.318540793E+01 -0.979766627E+00  0.250514168E+01
   C  0.318540793E+01 -0.979766627E+00  0.250514168E+01
   H -0.897784509E+01  0.142206466E+02  0.227392297E+01
   H  0.897784509E+01  0.142206466E+02  0.227392297E+01
   H -0.176722821E+02 -0.254493462E+01  0.238547262E+01
   H  0.176722821E+02 -0.254493462E+01  0.238547262E+01
  Xx  0.905698310E-16  0.290732354E-01 -0.195907744E+04
    11
 # iter = 42750  time[fs]=42.75000
   N -0.257004683E+01 -0.255330880E+01  0.250438325E+01
   N  0.257004683E+01 -0.255330880E+01  0.250438325E+01
   C -0.570133054E+00  0.273146560E+01  0.251423442E+01
   C  0.570133054E+00  0.273146560E+01  0.251423442E+01
   C -0.319384570E+01 -0.997305901E+00  0.250504240E+01
   C  0.319384570E+01 -0.997305901E+00  0.250504240E+01
   H -0.903879429E+01  0.143152243E+02  0.227225820E+01
   H  0.903879429E+01  0.143152243E+02  0.227225820E+01
   H -0.177896002E+02 -0.256731516E+01  0.238468153E+01
   H  0.177896002E+02 -0.256731516E+01  0.238468153E+01
  Xx  0.911070168E-16  0.292457311E-01 -0.197071907E+04
    11
 # iter = 43000  time[fs]=43.00000
   N -0.258556960E+01 -0.255362212E+01  0.250427248E+01
   N  0.258556960E+01 -0.255362212E+01  0.250427248E+01
   C -0.570234362E+00  0.274098062E+01  0.251428304E+01
   C  0.570234362E+00  0.274098062E+01  0.251428304E+01
   C -0.320226549E+01 -0.101502607E+01  0.250493133E+01
   C  0.320226549E+01 -0.101502607E+01  0.250493133E+01
   H -0.909980567E+01  0.144098892E+02  0.227059232E+01
   H  0.909980567E+01  0.144098892E+02  0.227059232E+01
   H -0.179070093E+02 -0.258972962E+01  0.238389044E+01
   H  0.179070093E+02 -0.258972962E+01  0.238389044E+01
  Xx  0.916442027E-16  0.294182269E-01 -0.198236070E+04
    11
 # iter = 43250  time[fs]=43.25000
   N -0.260111559E+01 -0.255379738E+01  0.250418176E+01
   N  0.260111559E+01 -0.255379738E+01  0.250418176E+01
   C -0.571383490E+00  0.275048659E+01  0.251433019E+01
   C  0.571383490E+00  0.275048659E+01  0.251433019E+01
   C -0.321058969E+01 -0.103291959E+01  0.250479053E+01
   C  0.321058969E+01 -0.103291959E+01  0.250479053E+01
   H -0.916087805E+01  0.145046396E+02  0.226892532E+01
   H  0.916087805E+01  0.145046396E+02  0.226892532E+01
   H -0.180245073E+02 -0.261217781E+01  0.238309923E+01
   H  0.180245073E+02 -0.261217781E+01  0.238309923E+01
  Xx  0.921813885E-16  0.295907227E-01 -0.199400233E+04
    11
 # iter = 43500  time[fs]=43.50000
   N -0.261665717E+01 -0.255384059E+01  0.250406148E+01
   N  0.261665717E+01 -0.255384059E+01  0.250406148E+01
   C -0.573559195E+00  0.275999595E+01  0.251437294E+01
   C  0.573559195E+00  0.275999595E+01  0.251437294E+01
   C -0.321887052E+01 -0.105095584E+01  0.250468383E+01
   C  0.321887052E+01 -0.105095584E+01  0.250468383E+01
   H -0.922200833E+01  0.145994743E+02  0.226725708E+01
   H  0.922200833E+01  0.145994743E+02  0.226725708E+01
   H -0.181420942E+02 -0.263465921E+01  0.238230760E+01
   H  0.181420942E+02 -0.263465921E+01  0.238230760E+01
  Xx  0.927185744E-16  0.297632184E-01 -0.200564396E+04
    11
 # iter = 43750  time[fs]=43.75000
   N -0.263221583E+01 -0.255372550E+01  0.250393490E+01
   N  0.263221583E+01 -0.255372550E+01  0.250393490E+01
   C -0.576726004E+00  0.276948909E+01  0.251442107E+01
   C  0.576726004E+00  0.276948909E+01  0.251442107E+01
   C -0.322712117E+01 -0.106914206E+01  0.250458613E+01
   C  0.322712117E+01 -0.106914206E+01  0.250458613E+01
   H -0.928319635E+01  0.146943935E+02  0.226558738E+01
   H  0.928319635E+01  0.146943935E+02  0.226558738E+01
   H -0.182597698E+02 -0.265717322E+01  0.238151547E+01
   H  0.182597698E+02 -0.265717322E+01  0.238151547E+01
  Xx  0.932557603E-16  0.299357142E-01 -0.201728559E+04
    11
 # iter = 44000  time[fs]=44.00000
   N -0.264782636E+01 -0.255347204E+01  0.250382623E+01
   N  0.264782636E+01 -0.255347204E+01  0.250382623E+01
   C -0.580843133E+00  0.277897576E+01  0.251446622E+01
   C  0.580843133E+00  0.277897576E+01  0.251446622E+01
   C -0.323533312E+01 -0.108748942E+01  0.250445224E+01
   C  0.323533312E+01 -0.108748942E+01  0.250445224E+01
   H -0.934444210E+01  0.147893957E+02  0.226391615E+01
   H  0.934444210E+01  0.147893957E+02  0.226391615E+01
   H -0.183775343E+02 -0.267971946E+01  0.238072283E+01
   H  0.183775343E+02 -0.267971946E+01  0.238072283E+01
  Xx  0.937929461E-16  0.301082100E-01 -0.202892722E+04
    11
 # iter = 44250  time[fs]=44.25000
   N -0.266350975E+01 -0.255309177E+01  0.250370476E+01
   N  0.266350975E+01 -0.255309177E+01  0.250370476E+01
   C -0.585857124E+00  0.278846154E+01  0.251451187E+01
   C  0.585857124E+00  0.278846154E+01  0.251451187E+01
   C -0.324349254E+01 -0.110598395E+01  0.250432955E+01
   C  0.324349254E+01 -0.110598395E+01  0.250432955E+01
   H -0.940574557E+01  0.148844779E+02  0.226224381E+01
   H  0.940574557E+01  0.148844779E+02  0.226224381E+01
   H -0.184953875E+02 -0.270229770E+01  0.237993018E+01
   H  0.184953875E+02 -0.270229770E+01  0.237993018E+01
  Xx  0.943301320E-16  0.302807057E-01 -0.204056885E+04
    11
 # iter = 44500  time[fs]=44.50000
   N -0.267928708E+01 -0.255259709E+01  0.250356391E+01
   N  0.267928708E+01 -0.255259709E+01  0.250356391E+01
   C -0.591700197E+00  0.279793003E+01  0.251455740E+01
   C  0.591700197E+00  0.279793003E+01  0.251455740E+01
   C -0.325160862E+01 -0.112458850E+01  0.250423030E+01
   C  0.325160862E+01 -0.112458850E+01  0.250423030E+01
   H -0.946710628E+01  0.149796400E+02  0.226057036E+01
   H  0.946710628E+01  0.149796400E+02  0.226057036E+01
   H -0.186133296E+02 -0.272490709E+01  0.237913753E+01
   H  0.186133296E+02 -0.272490709E+01  0.237913753E+01
  Xx  0.948673178E-16  0.304532015E-01 -0.205221048E+04
    11
 # iter = 44750  time[fs]=44.75000
   N -0.269515458E+01 -0.255195520E+01  0.250344269E+01
   N  0.269515458E+01 -0.255195520E+01  0.250344269E+01
   C -0.598291680E+00  0.280739759E+01  0.251459391E+01
   C  0.598291680E+00  0.280739759E+01  0.251459391E+01
   C -0.325969333E+01 -0.114333385E+01  0.250410622E+01
   C  0.325969333E+01 -0.114333385E+01  0.250410622E+01
   H -0.952852172E+01  0.150748821E+02  0.225889583E+01
   H  0.952852172E+01  0.150748821E+02  0.225889583E+01
   H -0.187313605E+02 -0.274754721E+01  0.237834488E+01
   H  0.187313605E+02 -0.274754721E+01  0.237834488E+01
  Xx  0.954045037E-16  0.306256973E-01 -0.206385211E+04
    11
 # iter = 45000  time[fs]=45.00000
   N -0.271111478E+01 -0.255119788E+01  0.250332676E+01
   N  0.271111478E+01 -0.255119788E+01  0.250332676E+01
   C -0.605552133E+00  0.281684988E+01  0.251463540E+01
   C  0.605552133E+00  0.281684988E+01  0.251463540E+01
   C -0.326772234E+01 -0.116221297E+01  0.250397913E+01
   C  0.326772234E+01 -0.116221297E+01  0.250397913E+01
   H -0.958999137E+01  0.151702029E+02  0.225722057E+01
   H  0.958999137E+01  0.151702029E+02  0.225722057E+01
   H -0.188494744E+02 -0.277021788E+01  0.237755224E+01
   H  0.188494744E+02 -0.277021788E+01  0.237755224E+01
  Xx  0.959416895E-16  0.307981931E-01 -0.207549374E+04
    11
 # iter = 45250  time[fs]=45.25000
   N -0.272716578E+01 -0.255034563E+01  0.250317336E+01
   N  0.272716578E+01 -0.255034563E+01  0.250317336E+01
   C -0.613408662E+00  0.282629203E+01  0.251467253E+01
   C  0.613408662E+00  0.282629203E+01  0.251467253E+01
   C -0.327571619E+01 -0.118118541E+01  0.250388166E+01
   C  0.327571619E+01 -0.118118541E+01  0.250388166E+01
   H -0.965151432E+01  0.152655992E+02  0.225554421E+01
   H  0.965151432E+01  0.152655992E+02  0.225554421E+01
   H -0.189676683E+02 -0.279291853E+01  0.237675959E+01
   H  0.189676683E+02 -0.279291853E+01  0.237675959E+01
  Xx  0.964788754E-16  0.309706888E-01 -0.208713537E+04
    11
 # iter = 45500  time[fs]=45.50000
   N -0.274324381E+01 -0.254941354E+01  0.250303443E+01
   N  0.274324381E+01 -0.254941354E+01  0.250303443E+01
   C -0.621778434E+00  0.283573142E+01  0.251470481E+01
   C  0.621778434E+00  0.283573142E+01  0.251470481E+01
   C -0.328369725E+01 -0.120023448E+01  0.250377169E+01
   C  0.328369725E+01 -0.120023448E+01  0.250377169E+01
   H -0.971309056E+01  0.153610710E+02  0.225386674E+01
   H  0.971309056E+01  0.153610710E+02  0.225386674E+01
   H -0.190859422E+02 -0.281564890E+01  0.237596694E+01
   H  0.190859422E+02 -0.281564890E+01  0.237596694E+01
  Xx  0.970160612E-16  0.311431846E-01 -0.209877700E+04
    11
 # iter = 45750  time[fs]=45.75000
   N -0.275934400E+01 -0.254840316E+01  0.250290425E+01
   N  0.275934400E+01 -0.254840316E+01  0.250290425E+01
   C -0.630580703E+00  0.284515535E+01  0.251474131E+01
   C  0.630580703E+00  0.284515535E+01  0.251474131E+01
   C -0.329166029E+01 -0.121936354E+01  0.250365193E+01
   C  0.329166029E+01 -0.121936354E+01  0.250365193E+01
   H -0.977472009E+01  0.154566184E+02  0.225218816E+01
   H  0.977472009E+01  0.154566184E+02  0.225218816E+01
   H -0.192042960E+02 -0.283840845E+01  0.237517428E+01
   H  0.192042960E+02 -0.283840845E+01  0.237517428E+01
  Xx  0.975532471E-16  0.313156804E-01 -0.211041863E+04
    11
 # iter = 46000  time[fs]=46.00000
   N -0.277544921E+01 -0.254733732E+01  0.250275148E+01
   N  0.277544921E+01 -0.254733732E+01  0.250275148E+01
   C -0.639748728E+00  0.285458168E+01  0.251477100E+01
   C  0.639748728E+00  0.285458168E+01  0.251477100E+01
   C -0.329959962E+01 -0.123854497E+01  0.250354634E+01
   C  0.329959962E+01 -0.123854497E+01  0.250354634E+01
   H -0.983640291E+01  0.155522412E+02  0.225050848E+01
   H  0.983640291E+01  0.155522412E+02  0.225050848E+01
   H -0.193227297E+02 -0.286119701E+01  0.237438123E+01
   H  0.193227297E+02 -0.286119701E+01  0.237438123E+01
  Xx  0.980904330E-16  0.314881761E-01 -0.212206026E+04
    11
 # iter = 46250  time[fs]=46.25000
   N -0.279152860E+01 -0.254625645E+01  0.250260726E+01
   N  0.279152860E+01 -0.254625645E+01  0.250260726E+01
   C -0.649213730E+00  0.286399043E+01  0.251480244E+01
   C  0.649213730E+00  0.286399043E+01  0.251480244E+01
   C -0.330752970E+01 -0.125771870E+01  0.250342434E+01
   C  0.330752970E+01 -0.125771870E+01  0.250342434E+01
   H -0.989813738E+01  0.156479380E+02  0.224882768E+01
   H  0.989813738E+01  0.156479380E+02  0.224882768E+01
   H -0.194412433E+02 -0.288401420E+01  0.237358769E+01
   H  0.194412433E+02 -0.288401420E+01  0.237358769E+01
  Xx  0.986276188E-16  0.316606719E-01 -0.213370189E+04
    11
 # iter = 46500  time[fs]=46.50000
   N -0.280752100E+01 -0.254515738E+01  0.250244952E+01
   N  0.280752100E+01 -0.254515738E+01  0.250244952E+01
   C -0.658910615E+00  0.287339863E+01  0.251483288E+01
   C  0.658910615E+00  0.287339863E+01  0.251483288E+01
   C -0.331548886E+01 -0.127689825E+01  0.250330993E+01
   C  0.331548886E+01 -0.127689825E+01  0.250330993E+01
   H -0.995992074E+01  0.157437059E+02  0.224714577E+01
   H  0.995992074E+01  0.157437059E+02  0.224714577E+01
   H -0.195598369E+02 -0.290685956E+01  0.237279402E+01
   H  0.195598369E+02 -0.290685956E+01  0.237279402E+01
  Xx  0.991648047E-16  0.318331677E-01 -0.214534353E+04
    11
 # iter = 46750  time[fs]=46.75000
   N -0.282344339E+01 -0.254404088E+01  0.250227118E+01
   N  0.282344339E+01 -0.254404088E+01  0.250227118E+01
   C -0.668783002E+00  0.288280466E+01  0.251486511E+01
   C  0.668783002E+00  0.288280466E+01  0.251486511E+01
   C -0.332344918E+01 -0.129610124E+01  0.250321595E+01
   C  0.332344918E+01 -0.129610124E+01  0.250321595E+01
   H -0.100217529E+02  0.158395449E+02  0.224546275E+01
   H  0.100217529E+02  0.158395449E+02  0.224546275E+01
   H -0.196785105E+02 -0.292973268E+01  0.237200036E+01
   H  0.196785105E+02 -0.292973268E+01  0.237200036E+01
  Xx  0.997019905E-16  0.320056634E-01 -0.215698516E+04
    11
 # iter = 47000  time[fs]=47.00000
   N -0.283927887E+01 -0.254291461E+01  0.250211890E+01
   N  0.283927887E+01 -0.254291461E+01  0.250211890E+01
   C -0.678778654E+00  0.289221136E+01  0.251489759E+01
   C  0.678778654E+00  0.289221136E+01  0.251489759E+01
   C -0.333141893E+01 -0.131529747E+01  0.250309583E+01
   C  0.333141893E+01 -0.131529747E+01  0.250309583E+01
   H -0.100836340E+02  0.159354549E+02  0.224377862E+01
   H  0.100836340E+02  0.159354549E+02  0.224377862E+01
   H -0.197972639E+02 -0.295263348E+01  0.237120669E+01
   H  0.197972639E+02 -0.295263348E+01  0.237120669E+01
  Xx  0.100239176E-15  0.321781592E-01 -0.216862679E+04
    11
 # iter = 47250  time[fs]=47.25000
   N -0.285503529E+01 -0.254184246E+01  0.250196364E+01
   N  0.285503529E+01 -0.254184246E+01  0.250196364E+01
   C -0.688853919E+00  0.290162490E+01  0.251492964E+01
   C  0.688853919E+00  0.290162490E+01  0.251492964E+01
   C -0.333943314E+01 -0.133443012E+01  0.250297969E+01
   C  0.333943314E+01 -0.133443012E+01  0.250297969E+01
   H -0.101455639E+02  0.160314360E+02  0.224209338E+01
   H  0.101455639E+02  0.160314360E+02  0.224209338E+01
   H -0.199160957E+02 -0.297556167E+01  0.237041303E+01
   H  0.199160957E+02 -0.297556167E+01  0.237041303E+01
  Xx  0.100776362E-15  0.323506550E-01 -0.218026842E+04
    11
 # iter = 47500  time[fs]=47.50000
   N -0.287074285E+01 -0.254084462E+01  0.250181139E+01
   N  0.287074285E+01 -0.254084462E+01  0.250181139E+01
   C -0.698965703E+00  0.291102022E+01  0.251496134E+01
   C  0.698965703E+00  0.291102022E+01  0.251496134E+01
   C -0.334746364E+01 -0.135343954E+01  0.250286388E+01
   C  0.334746364E+01 -0.135343954E+01  0.250286388E+01
   H -0.102075427E+02  0.161274881E+02  0.224040703E+01
   H  0.102075427E+02  0.161274881E+02  0.224040703E+01
   H -0.200349992E+02 -0.299851655E+01  0.236961937E+01
   H  0.200349992E+02 -0.299851655E+01  0.236961937E+01
  Xx  0.101313548E-15  0.325231507E-01 -0.219191005E+04
    11
 # iter = 47750  time[fs]=47.75000
   N -0.288638485E+01 -0.253995714E+01  0.250167576E+01
   N  0.288638485E+01 -0.253995714E+01  0.250167576E+01
   C -0.709070303E+00  0.292043908E+01  0.251498103E+01
   C  0.709070303E+00  0.292043908E+01  0.251498103E+01
   C -0.335555737E+01 -0.137231713E+01  0.250273009E+01
   C  0.335555737E+01 -0.137231713E+01  0.250273009E+01
   H -0.102695703E+02  0.162236113E+02  0.223871957E+01
   H  0.102695703E+02  0.162236113E+02  0.223871957E+01
   H -0.201539737E+02 -0.302149807E+01  0.236882570E+01
   H  0.201539737E+02 -0.302149807E+01  0.236882570E+01
  Xx  0.101850734E-15  0.326956465E-01 -0.220355168E+04
    11
 # iter = 48000  time[fs]=48.00000
   N -0.290197300E+01 -0.253924527E+01  0.250150527E+01
   N  0.290197300E+01 -0.253924527E+01  0.250150527E+01
   C -0.719140543E+00  0.292985276E+01  0.251501324E+01
   C  0.719140543E+00  0.292985276E+01  0.251501324E+01
   C -0.336372653E+01 -0.139100343E+01  0.250263051E+01
   C  0.336372653E+01 -0.139100343E+01  0.250263051E+01
   H -0.103316452E+02  0.163198055E+02  0.223703099E+01
   H  0.103316452E+02  0.163198055E+02  0.223703099E+01
   H -0.202730193E+02 -0.304450593E+01  0.236803204E+01
   H  0.202730193E+02 -0.304450593E+01  0.236803204E+01
  Xx  0.102387920E-15  0.328681423E-01 -0.221519331E+04
    11
 # iter = 48250  time[fs]=48.25000
   N -0.291749757E+01 -0.253877721E+01  0.250134905E+01
   N  0.291749757E+01 -0.253877721E+01  0.250134905E+01
   C -0.729140789E+00  0.293927207E+01  0.251504037E+01
   C  0.729140789E+00  0.293927207E+01  0.251504037E+01
   C -0.337200878E+01 -0.140939495E+01  0.250250915E+01
   C  0.337200878E+01 -0.140939495E+01  0.250250915E+01
   H -0.103937646E+02  0.164160685E+02  0.223534131E+01
   H  0.103937646E+02  0.164160685E+02  0.223534131E+01
   H -0.203921360E+02 -0.306753937E+01  0.236723837E+01
   H  0.203921360E+02 -0.306753937E+01  0.236723837E+01
  Xx  0.102925106E-15  0.330406381E-01 -0.222683494E+04
    11
 # iter = 48500  time[fs]=48.50000
   N -0.293292657E+01 -0.253860640E+01  0.250116946E+01
   N  0.293292657E+01 -0.253860640E+01  0.250116946E+01
   C -0.739033735E+00  0.294869401E+01  0.251506135E+01
   C  0.739033735E+00  0.294869401E+01  0.251506135E+01
   C -0.338047244E+01 -0.142741584E+01  0.250241763E+01
   C  0.338047244E+01 -0.142741584E+01  0.250241763E+01
   H -0.104559284E+02  0.165123941E+02  0.223365052E+01
   H  0.104559284E+02  0.165123941E+02  0.223365052E+01
   H -0.205113237E+02 -0.309059834E+01  0.236644471E+01
   H  0.205113237E+02 -0.309059834E+01  0.236644471E+01
  Xx  0.103462292E-15  0.332131338E-01 -0.223847657E+04
    11
 # iter = 48750  time[fs]=48.75000
   N -0.294827971E+01 -0.253881373E+01  0.250099068E+01
   N  0.294827971E+01 -0.253881373E+01  0.250099068E+01
   C -0.748792914E+00  0.295812321E+01  0.251508473E+01
   C  0.748792914E+00  0.295812321E+01  0.251508473E+01
   C -0.338909514E+01 -0.144499487E+01  0.250230824E+01
   C  0.338909514E+01 -0.144499487E+01  0.250230824E+01
   H -0.105181366E+02  0.166087818E+02  0.223195862E+01
   H  0.105181366E+02  0.166087818E+02  0.223195862E+01
   H -0.206305824E+02 -0.311368285E+01  0.236565104E+01
   H  0.206305824E+02 -0.311368285E+01  0.236565104E+01
  Xx  0.103999477E-15  0.333856296E-01 -0.225011820E+04
    11
 # iter = 49000  time[fs]=49.00000
   N -0.296348724E+01 -0.253944804E+01  0.250079739E+01
   N  0.296348724E+01 -0.253944804E+01  0.250079739E+01
   C -0.758399931E+00  0.296755558E+01  0.251510387E+01
   C  0.758399931E+00  0.296755558E+01  0.251510387E+01
   C -0.339793380E+01 -0.146207876E+01  0.250221483E+01
   C  0.339793380E+01 -0.146207876E+01  0.250221483E+01
   H -0.105803892E+02  0.167052317E+02  0.223026561E+01
   H  0.105803892E+02  0.167052317E+02  0.223026561E+01
   H -0.207499123E+02 -0.313679269E+01  0.236485738E+01
   H  0.207499123E+02 -0.313679269E+01  0.236485738E+01
  Xx  0.104536663E-15  0.335581254E-01 -0.226175983E+04
    11
 # iter = 49250  time[fs]=49.25000
   N -0.297853463E+01 -0.254061066E+01  0.250061092E+01
   N  0.297853463E+01 -0.254061066E+01  0.250061092E+01
   C -0.767836592E+00  0.297699069E+01  0.251512256E+01
   C  0.767836592E+00  0.297699069E+01  0.251512256E+01
   C -0.340700096E+01 -0.147853818E+01  0.250212054E+01
   C  0.340700096E+01 -0.147853818E+01  0.250212054E+01
   H -0.106426862E+02  0.168017438E+02  0.222857149E+01
   H  0.106426862E+02  0.168017438E+02  0.222857149E+01
   H -0.208693131E+02 -0.315992706E+01  0.236406371E+01
   H  0.208693131E+02 -0.315992706E+01  0.236406371E+01
  Xx  0.105073849E-15  0.337306211E-01 -0.227340146E+04
    11
 # iter = 49500  time[fs]=49.50000
   N -0.299334419E+01 -0.254239192E+01  0.250041083E+01
   N  0.299334419E+01 -0.254239192E+01  0.250041083E+01
   C -0.777074940E+00  0.298642995E+01  0.251514197E+01
   C  0.777074940E+00  0.298642995E+01  0.251514197E+01
   C -0.341638772E+01 -0.149424655E+01  0.250203729E+01
   C  0.341638772E+01 -0.149424655E+01  0.250203729E+01
   H -0.107050276E+02  0.168983180E+02  0.222687625E+01
   H  0.107050276E+02  0.168983180E+02  0.222687625E+01
   H -0.209887851E+02 -0.318308585E+01  0.236327005E+01
   H  0.209887851E+02 -0.318308585E+01  0.236327005E+01
  Xx  0.105611035E-15  0.339031169E-01 -0.228504309E+04
    11
 # iter = 49750  time[fs]=49.75000
   N -0.300786233E+01 -0.254488596E+01  0.250020920E+01
   N  0.300786233E+01 -0.254488596E+01  0.250020920E+01
   C -0.786100346E+00  0.299585595E+01  0.251515197E+01
   C  0.786100346E+00  0.299585595E+01  0.251515197E+01
   C -0.342612481E+01 -0.150909864E+01  0.250195883E+01
   C  0.342612481E+01 -0.150909864E+01  0.250195883E+01
   H -0.107674134E+02  0.169949544E+02  0.222517993E+01
   H  0.107674134E+02  0.169949544E+02  0.222517993E+01
   H -0.211083281E+02 -0.320626906E+01  0.236247638E+01
   H  0.211083281E+02 -0.320626906E+01  0.236247638E+01
  Xx  0.106148221E-15  0.340756127E-01 -0.229668472E+04
    11
 # iter = 50000  time[fs]=50.00000
   N -0.302201785E+01 -0.254814778E+01  0.250001662E+01
   N  0.302201785E+01 -0.254814778E+01  0.250001662E+01
   C -0.794896377E+00  0.300530741E+01  0.251516472E+01
   C  0.794896377E+00  0.300530741E+01  0.251516472E+01
   C -0.343626326E+01 -0.152303965E+01  0.250187142E+01
   C  0.343626326E+01 -0.152303965E+01  0.250187142E+01
   H -0.108298432E+02  0.170916530E+02  0.222348268E+01
   H  0.108298432E+02  0.170916530E+02  0.222348268E+01
   H -0.212279408E+02 -0.322947637E+01  0.236168272E+01
   H  0.212279408E+02 -0.322947637E+01  0.236168272E+01
  Xx  0.106685407E-15  0.342481084E-01 -0.230832635E+04
    11
 # iter = 50250  time[fs]=50.25000
   N -0.303579767E+01 -0.255225668E+01  0.249981573E+01
   N  0.303579767E+01 -0.255225668E+01  0.249981573E+01
   C -0.803448654E+00  0.301473133E+01  0.251518207E+01
   C  0.803448654E+00  0.301473133E+01  0.251518207E+01
   C -0.344679769E+01 -0.153597570E+01  0.250179103E+01
   C  0.344679769E+01 -0.153597570E+01  0.250179103E+01
   H -0.108923165E+02  0.171884137E+02  0.222178455E+01
   H  0.108923165E+02  0.171884137E+02  0.222178455E+01
   H -0.213476166E+02 -0.325270762E+01  0.236088906E+01
   H  0.213476166E+02 -0.325270762E+01  0.236088906E+01
  Xx  0.107222593E-15  0.344206042E-01 -0.231996798E+04
    11
 # iter = 50500  time[fs]=50.50000
   N -0.304913963E+01 -0.255728754E+01  0.249961486E+01
   N  0.304913963E+01 -0.255728754E+01  0.249961486E+01
   C -0.811744566E+00  0.302416426E+01  0.251518722E+01
   C  0.811744566E+00  0.302416426E+01  0.251518722E+01
   C -0.345778751E+01 -0.154780611E+01  0.250170601E+01
   C  0.345778751E+01 -0.154780611E+01  0.250170601E+01
   H -0.109548300E+02  0.172852367E+02  0.222008537E+01
   H  0.109548300E+02  0.172852367E+02  0.222008537E+01
   H -0.214673547E+02 -0.327596220E+01  0.236009539E+01
   H  0.214673547E+02 -0.327596220E+01  0.236009539E+01
  Xx  0.107759778E-15  0.345931000E-01 -0.233160961E+04
    11
 # iter = 50750  time[fs]=50.75000
   N -0.306200370E+01 -0.256330991E+01  0.249939909E+01
   N  0.306200370E+01 -0.256330991E+01  0.249939909E+01
   C -0.819796388E+00  0.303359023E+01  0.251519901E+01
   C  0.819796388E+00  0.303359023E+01  0.251519901E+01
   C -0.346925656E+01 -0.155843080E+01  0.250164349E+01
   C  0.346925656E+01 -0.155843080E+01  0.250164349E+01
   H -0.110173835E+02  0.173821218E+02  0.221838507E+01
   H  0.110173835E+02  0.173821218E+02  0.221838507E+01
   H -0.215871549E+02 -0.329924010E+01  0.235930173E+01
   H  0.215871549E+02 -0.329924010E+01  0.235930173E+01
  Xx  0.108296964E-15  0.347655957E-01 -0.234325124E+04
    11
 # iter = 51000  time[fs]=51.00000
   N -0.307435946E+01 -0.257035305E+01  0.249918837E+01
   N  0.307435946E+01 -0.257035305E+01  0.249918837E+01
   C -0.827586771E+00  0.304301194E+01  0.251520346E+01
   C  0.827586771E+00  0.304301194E+01  0.251520346E+01
   C -0.348125376E+01 -0.156783131E+01  0.250157836E+01
   C  0.348125376E+01 -0.156783131E+01  0.250157836E+01
   H -0.110799769E+02  0.174790690E+02  0.221668367E+01
   H  0.110799769E+02  0.174790690E+02  0.221668367E+01
   H -0.217070172E+02 -0.332254130E+01  0.235850806E+01
   H  0.217070172E+02 -0.332254130E+01  0.235850806E+01
  Xx  0.108834150E-15  0.349380915E-01 -0.235489287E+04
    11
 # iter = 51250  time[fs]=51.25000
   N -0.308622570E+01 -0.257841193E+01  0.249897071E+01
   N  0.308622570E+01 -0.257841193E+01  0.249897071E+01
   C -0.835109568E+00  0.305242327E+01  0.251520891E+01
   C  0.835109568E+00  0.305242327E+01  0.251520891E+01
   C -0.349374705E+01 -0.157601784E+01  0.250151237E+01
   C  0.349374705E+01 -0.157601784E+01  0.250151237E+01
   H -0.111426103E+02  0.175760785E+02  0.221498115E+01
   H  0.111426103E+02  0.175760785E+02  0.221498115E+01
   H -0.218269418E+02 -0.334586519E+01  0.235771440E+01
   H  0.218269418E+02 -0.334586519E+01  0.235771440E+01
  Xx  0.109371336E-15  0.351105873E-01 -0.236653450E+04
    11
 # iter = 51500  time[fs]=51.50000
   N -0.309761762E+01 -0.258748315E+01  0.249875106E+01
   N  0.309761762E+01 -0.258748315E+01  0.249875106E+01
   C -0.842375264E+00  0.306182418E+01  0.251521632E+01
   C  0.842375264E+00  0.306182418E+01  0.251521632E+01
   C -0.350673172E+01 -0.158299892E+01  0.250145194E+01
   C  0.350673172E+01 -0.158299892E+01  0.250145194E+01
   H -0.112052837E+02  0.176731492E+02  0.221327752E+01
   H  0.112052837E+02  0.176731492E+02  0.221327752E+01
   H -0.219469285E+02 -0.336921129E+01  0.235692073E+01
   H  0.219469285E+02 -0.336921129E+01  0.235692073E+01
  Xx  0.109908522E-15  0.352830830E-01 -0.237817613E+04
    11
 # iter = 51750  time[fs]=51.75000
   N -0.310856910E+01 -0.259756559E+01  0.249853235E+01
   N  0.310856910E+01 -0.259756559E+01  0.249853235E+01
   C -0.849377367E+00  0.307123173E+01  0.251521443E+01
   C  0.849377367E+00  0.307123173E+01  0.251521443E+01
   C -0.352017619E+01 -0.158876547E+01  0.250138631E+01
   C  0.352017619E+01 -0.158876547E+01  0.250138631E+01
   H -0.112679971E+02  0.177702746E+02  0.221157279E+01
   H  0.112679971E+02  0.177702746E+02  0.221157279E+01
   H -0.220669774E+02 -0.339257958E+01  0.235612707E+01
   H  0.220669774E+02 -0.339257958E+01  0.235612707E+01
  Xx  0.110445708E-15  0.354555788E-01 -0.238981776E+04
    11
 # iter = 52000  time[fs]=52.00000
   N -0.311908222E+01 -0.260863254E+01  0.249829608E+01
   N  0.311908222E+01 -0.260863254E+01  0.249829608E+01
   C -0.856119446E+00  0.308061563E+01  0.251522105E+01
   C  0.856119446E+00  0.308061563E+01  0.251522105E+01
   C -0.353410702E+01 -0.159335874E+01  0.250135001E+01
   C  0.353410702E+01 -0.159335874E+01  0.250135001E+01
   H -0.113307504E+02  0.178674533E+02  0.220986694E+01
   H  0.113307504E+02  0.178674533E+02  0.220986694E+01
   H -0.221870885E+02 -0.341597000E+01  0.235533340E+01
   H  0.221870885E+02 -0.341597000E+01  0.235533340E+01
  Xx  0.110982894E-15  0.356280746E-01 -0.240145939E+04
    11
 # iter = 52250  time[fs]=52.25000
   N -0.312919724E+01 -0.262062424E+01  0.249806165E+01
   N  0.312919724E+01 -0.262062424E+01  0.249806165E+01
   C -0.862612652E+00  0.309000082E+01  0.251521757E+01
   C  0.862612652E+00  0.309000082E+01  0.251521757E+01
   C -0.354849300E+01 -0.159687617E+01  0.250129979E+01
   C  0.354849300E+01 -0.159687617E+01  0.250129979E+01
   H -0.113935437E+02  0.179646852E+02  0.220815999E+01
   H  0.113935437E+02  0.179646852E+02  0.220815999E+01
   H -0.223072617E+02 -0.343938218E+01  0.235453974E+01
   H  0.223072617E+02 -0.343938218E+01  0.235453974E+01
  Xx  0.111520079E-15  0.358005704E-01 -0.241310102E+04
    11
 # iter = 52500  time[fs]=52.50000
   N -0.313897157E+01 -0.263345963E+01  0.249780909E+01
   N  0.313897157E+01 -0.263345963E+01  0.249780909E+01
   C -0.868840880E+00  0.309938303E+01  0.251521623E+01
   C  0.868840880E+00  0.309938303E+01  0.251521623E+01
   C -0.356326927E+01 -0.159943385E+01  0.250127371E+01
   C  0.356326927E+01 -0.159943385E+01  0.250127371E+01
   H -0.114563770E+02  0.180619704E+02  0.220645192E+01
   H  0.114563770E+02  0.180619704E+02  0.220645192E+01
   H -0.224274971E+02 -0.346281557E+01  0.235374608E+01
   H  0.224274971E+02 -0.346281557E+01  0.235374608E+01
  Xx  0.112057265E-15  0.359730661E-01 -0.242474265E+04
    11
 # iter = 52750  time[fs]=52.75000
   N -0.314846621E+01 -0.264708096E+01  0.249756962E+01
   N  0.314846621E+01 -0.264708096E+01  0.249756962E+01
   C -0.874815371E+00  0.310875142E+01  0.251521030E+01
   C  0.874815371E+00  0.310875142E+01  0.251521030E+01
   C -0.357837907E+01 -0.160112617E+01  0.250122858E+01
   C  0.357837907E+01 -0.160112617E+01  0.250122858E+01
   H -0.115192500E+02  0.181593090E+02  0.220474274E+01
   H  0.115192500E+02  0.181593090E+02  0.220474274E+01
   H -0.225477947E+02 -0.348627006E+01  0.235295241E+01
   H  0.225477947E+02 -0.348627006E+01  0.235295241E+01
  Xx  0.112594451E-15  0.361455619E-01 -0.243638428E+04
    11
 # iter = 53000  time[fs]=53.00000
   N -0.315772355E+01 -0.266142861E+01  0.249731024E+01
   N  0.315772355E+01 -0.266142861E+01  0.249731024E+01
   C -0.880527263E+00  0.311812106E+01  0.251520910E+01
   C  0.880527263E+00  0.311812106E+01  0.251520910E+01
   C -0.359379446E+01 -0.160203259E+01  0.250121508E+01
   C  0.359379446E+01 -0.160203259E+01  0.250121508E+01
   H -0.115821598E+02  0.182567008E+02  0.220303246E+01
   H  0.115821598E+02  0.182567008E+02  0.220303246E+01
   H -0.226681544E+02 -0.350974564E+01  0.235215875E+01
   H  0.226681544E+02 -0.350974564E+01  0.235215875E+01
  Xx  0.113131637E-15  0.363180577E-01 -0.244802591E+04
    11
 # iter = 53250  time[fs]=53.25000
   N -0.316678254E+01 -0.267643848E+01  0.249705935E+01
   N  0.316678254E+01 -0.267643848E+01  0.249705935E+01
   C -0.885975454E+00  0.312749614E+01  0.251519428E+01
   C  0.885975454E+00  0.312749614E+01  0.251519428E+01
   C -0.360948855E+01 -0.160225003E+01  0.250118674E+01
   C  0.360948855E+01 -0.160225003E+01  0.250118674E+01
   H -0.116451051E+02  0.183541459E+02  0.220132106E+01
   H  0.116451051E+02  0.183541459E+02  0.220132106E+01
   H -0.227885763E+02 -0.353324231E+01  0.235136508E+01
   H  0.227885763E+02 -0.353324231E+01  0.235136508E+01
  Xx  0.113668823E-15  0.364905534E-01 -0.245966754E+04
    11
 # iter = 53500  time[fs]=53.50000
   N -0.317567492E+01 -0.269201925E+01  0.249680907E+01
   N  0.317567492E+01 -0.269201925E+01  0.249680907E+01
   C -0.891169891E+00  0.313685290E+01  0.251518406E+01
   C  0.891169891E+00  0.313685290E+01  0.251518406E+01
   C -0.362543021E+01 -0.160190424E+01  0.250117212E+01
   C  0.362543021E+01 -0.160190424E+01  0.250117212E+01
   H -0.117080860E+02  0.184516443E+02  0.219960855E+01
   H  0.117080860E+02  0.184516443E+02  0.219960855E+01
   H -0.229090571E+02 -0.355676007E+01  0.235057142E+01
   H  0.229090571E+02 -0.355676007E+01  0.235057142E+01
  Xx  0.114206009E-15  0.366630492E-01 -0.247130917E+04
    11
 # iter = 53750  time[fs]=53.75000
   N -0.318445917E+01 -0.270810024E+01  0.249659044E+01
   N  0.318445917E+01 -0.270810024E+01  0.249659044E+01
   C -0.896102948E+00  0.314622683E+01  0.251517485E+01
   C  0.896102948E+00  0.314622683E+01  0.251517485E+01
   C -0.364156693E+01 -0.160109240E+01  0.250112654E+01
   C  0.364156693E+01 -0.160109240E+01  0.250112654E+01
   H -0.117711023E+02  0.185491960E+02  0.219789493E+01
   H  0.117711023E+02  0.185491960E+02  0.219789493E+01
   H -0.230295911E+02 -0.358029851E+01  0.234977775E+01
   H  0.230295911E+02 -0.358029851E+01  0.234977775E+01
  Xx  0.114743194E-15  0.368355450E-01 -0.248295081E+04
    11
 # iter = 54000  time[fs]=54.00000
   N -0.319315638E+01 -0.272460698E+01  0.249638850E+01
   N  0.319315638E+01 -0.272460698E+01  0.249638850E+01
   C -0.900789385E+00  0.315559907E+01  0.251515259E+01
   C  0.900789385E+00  0.315559907E+01  0.251515259E+01
   C -0.365787265E+01 -0.159988089E+01  0.250106899E+01
   C  0.365787265E+01 -0.159988089E+01  0.250106899E+01
   H -0.118341542E+02  0.186468010E+02  0.219618021E+01
   H  0.118341542E+02  0.186468010E+02  0.219618021E+01
   H -0.231501785E+02 -0.360385725E+01  0.234898409E+01
   H  0.231501785E+02 -0.360385725E+01  0.234898409E+01
  Xx  0.115280380E-15  0.370080407E-01 -0.249459244E+04
    11
 # iter = 54250  time[fs]=54.25000
   N -0.320179698E+01 -0.274146829E+01  0.249622273E+01
   N  0.320179698E+01 -0.274146829E+01  0.249622273E+01
   C -0.905226179E+00  0.316496813E+01  0.251513673E+01
   C  0.905226179E+00  0.316496813E+01  0.251513673E+01
   C -0.367431785E+01 -0.159833729E+01  0.250097908E+01
   C  0.367431785E+01 -0.159833729E+01  0.250097908E+01
   H -0.118972416E+02  0.187444593E+02  0.219446437E+01
   H  0.118972416E+02  0.187444593E+02  0.219446437E+01
   H -0.232708192E+02 -0.362743597E+01  0.234819042E+01
   H  0.232708192E+02 -0.362743597E+01  0.234819042E+01
  Xx  0.115817566E-15  0.371805365E-01 -0.250623407E+04
    11
 # iter = 54500  time[fs]=54.50000
   N -0.321040596E+01 -0.275857733E+01  0.249608503E+01
   N  0.321040596E+01 -0.275857733E+01  0.249608503E+01
   C -0.909411565E+00  0.317434565E+01  0.251512013E+01
   C  0.909411565E+00  0.317434565E+01  0.251512013E+01
   C -0.369086018E+01 -0.159655104E+01  0.250087376E+01
   C  0.369086018E+01 -0.159655104E+01  0.250087376E+01
   H -0.119603646E+02  0.188421709E+02  0.219274742E+01
   H  0.119603646E+02  0.188421709E+02  0.219274742E+01
   H -0.233915131E+02 -0.365103468E+01  0.234739676E+01
   H  0.233915131E+02 -0.365103468E+01  0.234739676E+01
  Xx  0.116354752E-15  0.373530323E-01 -0.251787570E+04
    11
 # iter = 54750  time[fs]=54.75000
   N -0.321900694E+01 -0.277583355E+01  0.249592870E+01
   N  0.321900694E+01 -0.277583355E+01  0.249592870E+01
   C -0.913349039E+00  0.318373782E+01  0.251509535E+01
   C  0.913349039E+00  0.318373782E+01  0.251509535E+01
   C -0.370747982E+01 -0.159461515E+01  0.250078895E+01
   C  0.370747982E+01 -0.159461515E+01  0.250078895E+01
   H -0.120235231E+02  0.189399357E+02  0.219102936E+01
   H  0.120235231E+02  0.189399357E+02  0.219102936E+01
   H -0.235122604E+02 -0.367465317E+01  0.234660310E+01
   H  0.235122604E+02 -0.367465317E+01  0.234660310E+01
  Xx  0.116891938E-15  0.375255280E-01 -0.252951733E+04
    11
 # iter = 55000  time[fs]=55.00000
   N -0.322761150E+01 -0.279316792E+01  0.249576448E+01
   N  0.322761150E+01 -0.279316792E+01  0.249576448E+01
   C -0.917041496E+00  0.319310981E+01  0.251507222E+01
   C  0.917041496E+00  0.319310981E+01  0.251507222E+01
   C -0.372413885E+01 -0.159257391E+01  0.250070598E+01
   C  0.372413885E+01 -0.159257391E+01  0.250070598E+01
   H -0.120867171E+02  0.190377539E+02  0.218931019E+01
   H  0.120867171E+02  0.190377539E+02  0.218931019E+01
   H -0.236330609E+02 -0.369829105E+01  0.234580943E+01
   H  0.236330609E+02 -0.369829105E+01  0.234580943E+01
  Xx  0.117429124E-15  0.376980238E-01 -0.254115896E+04
    11
 # iter = 55250  time[fs]=55.25000
   N -0.323623310E+01 -0.281052844E+01  0.249555577E+01
   N  0.323623310E+01 -0.281052844E+01  0.249555577E+01
   C -0.920492617E+00  0.320251734E+01  0.251505573E+01
   C  0.920492617E+00  0.320251734E+01  0.251505573E+01
   C -0.374082568E+01 -0.159046883E+01  0.250068635E+01
   C  0.374082568E+01 -0.159046883E+01  0.250068635E+01
   H -0.121499466E+02  0.191356253E+02  0.218759024E+01
   H  0.121499466E+02  0.191356253E+02  0.218759024E+01
   H -0.237539147E+02 -0.372194781E+01  0.234501577E+01
   H  0.237539147E+02 -0.372194781E+01  0.234501577E+01
  Xx  0.117966310E-15  0.378705196E-01 -0.255280059E+04
    11
 # iter = 55500  time[fs]=55.50000
   N -0.324487299E+01 -0.282785837E+01  0.249533999E+01
   N  0.324487299E+01 -0.282785837E+01  0.249533999E+01
   C -0.923698816E+00  0.321190825E+01  0.251502373E+01
   C  0.923698816E+00  0.321190825E+01  0.251502373E+01
   C -0.375751802E+01 -0.158834701E+01  0.250066275E+01
   C  0.375751802E+01 -0.158834701E+01  0.250066275E+01
   H -0.122132115E+02  0.192335484E+02  0.218586936E+01
   H  0.122132115E+02  0.192335484E+02  0.218586936E+01
   H -0.238748219E+02 -0.374562344E+01  0.234422210E+01
   H  0.238748219E+02 -0.374562344E+01  0.234422210E+01
  Xx  0.118503495E-15  0.380430154E-01 -0.256444222E+04
    11
 # iter = 55750  time[fs]=55.75000
   N -0.325353683E+01 -0.284512382E+01  0.249516065E+01
   N  0.325353683E+01 -0.284512382E+01  0.249516065E+01
   C -0.926674584E+00  0.322131162E+01  0.251500119E+01
   C  0.926674584E+00  0.322131162E+01  0.251500119E+01
   C -0.377418544E+01 -0.158626563E+01  0.250061830E+01
   C  0.377418544E+01 -0.158626563E+01  0.250061830E+01
   H -0.122765115E+02  0.193315186E+02  0.218414774E+01
   H  0.122765115E+02  0.193315186E+02  0.218414774E+01
   H -0.239957823E+02 -0.376931794E+01  0.234342844E+01
   H  0.239957823E+02 -0.376931794E+01  0.234342844E+01
  Xx  0.119040681E-15  0.382155111E-01 -0.257608385E+04
    11
 # iter = 56000  time[fs]=56.00000
   N -0.326219350E+01 -0.286229629E+01  0.249500560E+01
   N  0.326219350E+01 -0.286229629E+01  0.249500560E+01
   C -0.929398353E+00  0.323072405E+01  0.251498042E+01
   C  0.929398353E+00  0.323072405E+01  0.251498042E+01
   C -0.379084315E+01 -0.158426447E+01  0.250056540E+01
   C  0.379084315E+01 -0.158426447E+01  0.250056540E+01
   H -0.123398457E+02  0.194295336E+02  0.218242527E+01
   H  0.123398457E+02  0.194295336E+02  0.218242527E+01
   H -0.241167960E+02 -0.379303132E+01  0.234263477E+01
   H  0.241167960E+02 -0.379303132E+01  0.234263477E+01
  Xx  0.119577867E-15  0.383880069E-01 -0.258772548E+04
    11
 # iter = 56250  time[fs]=56.25000
   N -0.327085429E+01 -0.287939689E+01  0.249488331E+01
   N  0.327085429E+01 -0.287939689E+01  0.249488331E+01
   C -0.931890318E+00  0.324013133E+01  0.251494844E+01
   C  0.931890318E+00  0.324013133E+01  0.251494844E+01
   C -0.380746950E+01 -0.158235260E+01  0.250046902E+01
   C  0.380746950E+01 -0.158235260E+01  0.250046902E+01
   H -0.124032110E+02  0.195275929E+02  0.218070199E+01
   H  0.124032110E+02  0.195275929E+02  0.218070199E+01
   H -0.242378630E+02 -0.381676355E+01  0.234184111E+01
   H  0.242378630E+02 -0.381676355E+01  0.234184111E+01
  Xx  0.120115053E-15  0.385605027E-01 -0.259936711E+04
    11
 # iter = 56500  time[fs]=56.50000
   N -0.327951235E+01 -0.289643143E+01  0.249472303E+01
   N  0.327951235E+01 -0.289643143E+01  0.249472303E+01
   C -0.934145007E+00  0.324954022E+01  0.251492430E+01
   C  0.934145007E+00  0.324954022E+01  0.251492430E+01
   C -0.382405587E+01 -0.158054142E+01  0.250042421E+01
   C  0.382405587E+01 -0.158054142E+01  0.250042421E+01
   H -0.124666075E+02  0.196256967E+02  0.217897791E+01
   H  0.124666075E+02  0.196256967E+02  0.217897791E+01
   H -0.243589832E+02 -0.384051457E+01  0.234104744E+01
   H  0.243589832E+02 -0.384051457E+01  0.234104744E+01
  Xx  0.120652239E-15  0.387329984E-01 -0.261100874E+04
    11
 # iter = 56750  time[fs]=56.75000
   N -0.328819319E+01 -0.291341795E+01  0.249453771E+01
   N  0.328819319E+01 -0.291341795E+01  0.249453771E+01
   C -0.936152693E+00  0.325895509E+01  0.251490108E+01
   C  0.936152693E+00  0.325895509E+01  0.251490108E+01
   C -0.384058794E+01 -0.157884863E+01  0.250040564E+01
   C  0.384058794E+01 -0.157884863E+01  0.250040564E+01
   H -0.125300351E+02  0.197238448E+02  0.217725271E+01
   H  0.125300351E+02  0.197238448E+02  0.217725271E+01
   H -0.244801568E+02 -0.386428386E+01  0.234025378E+01
   H  0.244801568E+02 -0.386428386E+01  0.234025378E+01
  Xx  0.121189425E-15  0.389054942E-01 -0.262265037E+04
    11
 # iter = 57000  time[fs]=57.00000
   N -0.329686697E+01 -0.293037535E+01  0.249439780E+01
   N  0.329686697E+01 -0.293037535E+01  0.249439780E+01
   C -0.937942147E+00  0.326836522E+01  0.251486887E+01
   C  0.937942147E+00  0.326836522E+01  0.251486887E+01
   C -0.385706691E+01 -0.157728669E+01  0.250034032E+01
   C  0.385706691E+01 -0.157728669E+01  0.250034032E+01
   H -0.125934937E+02  0.198220374E+02  0.217552641E+01
   H  0.125934937E+02  0.198220374E+02  0.217552641E+01
   H -0.246013837E+02 -0.388807124E+01  0.233946012E+01
   H  0.246013837E+02 -0.388807124E+01  0.233946012E+01
  Xx  0.121726611E-15  0.390779900E-01 -0.263429200E+04
    11
 # iter = 57250  time[fs]=57.25000
   N -0.330551148E+01 -0.294729828E+01  0.249428077E+01
   N  0.330551148E+01 -0.294729828E+01  0.249428077E+01
   C -0.939469495E+00  0.327776419E+01  0.251484021E+01
   C  0.939469495E+00  0.327776419E+01  0.251484021E+01
   C -0.387351182E+01 -0.157585875E+01  0.250027713E+01
   C  0.387351182E+01 -0.157585875E+01  0.250027713E+01
   H -0.126569834E+02  0.199202744E+02  0.217379919E+01
   H  0.126569834E+02  0.199202744E+02  0.217379919E+01
   H -0.247226638E+02 -0.391187639E+01  0.233866645E+01
   H  0.247226638E+02 -0.391187639E+01  0.233866645E+01
  Xx  0.122263796E-15  0.392504857E-01 -0.264593363E+04
    11
 # iter = 57500  time[fs]=57.50000
   N -0.331412880E+01 -0.296417375E+01  0.249414434E+01
   N  0.331412880E+01 -0.296417375E+01  0.249414434E+01
   C -0.940779409E+00  0.328717772E+01  0.251481284E+01
   C  0.940779409E+00  0.328717772E+01  0.251481284E+01
   C -0.388991447E+01 -0.157458097E+01  0.250022742E+01
   C  0.388991447E+01 -0.157458097E+01  0.250022742E+01
   H -0.127205043E+02  0.200185558E+02  0.217207104E+01
   H  0.127205043E+02  0.200185558E+02  0.217207104E+01
   H -0.248439973E+02 -0.393569930E+01  0.233787279E+01
   H  0.248439973E+02 -0.393569930E+01  0.233787279E+01
  Xx  0.122800982E-15  0.394229815E-01 -0.265757526E+04
    11
 # iter = 57750  time[fs]=57.75000
   N -0.332275637E+01 -0.298097226E+01  0.249400741E+01
   N  0.332275637E+01 -0.298097226E+01  0.249400741E+01
   C -0.941838005E+00  0.329656351E+01  0.251477804E+01
   C  0.941838005E+00  0.329656351E+01  0.251477804E+01
   C -0.390624310E+01 -0.157347853E+01  0.250018011E+01
   C  0.390624310E+01 -0.157347853E+01  0.250018011E+01
   H -0.127840562E+02  0.201168815E+02  0.217034204E+01
   H  0.127840562E+02  0.201168815E+02  0.217034204E+01
   H -0.249653796E+02 -0.395953998E+01  0.233707912E+01
   H  0.249653796E+02 -0.395953998E+01  0.233707912E+01
  Xx  0.123338168E-15  0.395954773E-01 -0.266921689E+04
    11
 # iter = 58000  time[fs]=58.00000
   N -0.333139814E+01 -0.299764830E+01  0.249388959E+01
   N  0.333139814E+01 -0.299764830E+01  0.249388959E+01
   C -0.942659796E+00  0.330595971E+01  0.251474018E+01
   C  0.942659796E+00  0.330595971E+01  0.251474018E+01
   C -0.392248624E+01 -0.157257682E+01  0.250011898E+01
   C  0.392248624E+01 -0.157257682E+01  0.250011898E+01
   H -0.128476391E+02  0.202152518E+02  0.216861219E+01
   H  0.128476391E+02  0.202152518E+02  0.216861219E+01
   H -0.250868063E+02 -0.398339842E+01  0.233628546E+01
   H  0.250868063E+02 -0.398339842E+01  0.233628546E+01
  Xx  0.123875354E-15  0.397679730E-01 -0.268085852E+04
    11
 # iter = 58250  time[fs]=58.25000
   N -0.334002294E+01 -0.301416431E+01  0.249378103E+01
   N  0.334002294E+01 -0.301416431E+01  0.249378103E+01
   C -0.943252073E+00  0.331534365E+01  0.251471249E+01
   C  0.943252073E+00  0.331534365E+01  0.251471249E+01
   C -0.393867986E+01 -0.157188484E+01  0.250006806E+01
   C  0.393867986E+01 -0.157188484E+01  0.250006806E+01
   H -0.129112532E+02  0.203136664E+02  0.216688179E+01
   H  0.129112532E+02  0.203136664E+02  0.216688179E+01
   H -0.252082775E+02 -0.400727423E+01  0.233549179E+01
   H  0.252082775E+02 -0.400727423E+01  0.233549179E+01
  Xx  0.124412540E-15  0.399404688E-01 -0.269250015E+04
    11
 # iter = 58500  time[fs]=58.50000
   N -0.334867584E+01 -0.303050200E+01  0.249367637E+01
   N  0.334867584E+01 -0.303050200E+01  0.249367637E+01
   C -0.943588642E+00  0.332471383E+01  0.251465936E+01
   C  0.943588642E+00  0.332471383E+01  0.251465936E+01
   C -0.395479056E+01 -0.157139268E+01  0.250002524E+01
   C  0.395479056E+01 -0.157139268E+01  0.250002524E+01
   H -0.129748984E+02  0.204121254E+02  0.216515057E+01
   H  0.129748984E+02  0.204121254E+02  0.216515057E+01
   H -0.253297930E+02 -0.403116763E+01  0.233469813E+01
   H  0.253297930E+02 -0.403116763E+01  0.233469813E+01
  Xx  0.124949726E-15  0.401129646E-01 -0.270414178E+04
    11
 # iter = 58750  time[fs]=58.75000
   N -0.335736981E+01 -0.304665847E+01  0.249357830E+01
   N  0.335736981E+01 -0.304665847E+01  0.249357830E+01
   C -0.943707486E+00  0.333409102E+01  0.251462669E+01
   C  0.943707486E+00  0.333409102E+01  0.251462669E+01
   C -0.397080618E+01 -0.157111613E+01  0.249996033E+01
   C  0.397080618E+01 -0.157111613E+01  0.249996033E+01
   H -0.130385746E+02  0.205106288E+02  0.216341864E+01
   H  0.130385746E+02  0.205106288E+02  0.216341864E+01
   H -0.254513530E+02 -0.405507879E+01  0.233390446E+01
   H  0.254513530E+02 -0.405507879E+01  0.233390446E+01
  Xx  0.125486912E-15  0.402854604E-01 -0.271578341E+04
    11
 # iter = 59000  time[fs]=59.00000
   N -0.336609939E+01 -0.306259062E+01  0.249349695E+01
   N  0.336609939E+01 -0.306259062E+01  0.249349695E+01
   C -0.943575705E+00  0.334345190E+01  0.251457862E+01
   C  0.943575705E+00  0.334345190E+01  0.251457862E+01
   C -0.398675587E+01 -0.157105914E+01  0.249988991E+01
   C  0.398675587E+01 -0.157105914E+01  0.249988991E+01
   H -0.131022820E+02  0.206091767E+02  0.216168584E+01
   H  0.131022820E+02  0.206091767E+02  0.216168584E+01
   H -0.255729574E+02 -0.407900772E+01  0.233311080E+01
   H  0.255729574E+02 -0.407900772E+01  0.233311080E+01
  Xx  0.126024097E-15  0.404579561E-01 -0.272742504E+04
    11
 # iter = 59250  time[fs]=59.25000
   N -0.337488643E+01 -0.307829474E+01  0.249339747E+01
   N  0.337488643E+01 -0.307829474E+01  0.249339747E+01
   C -0.943214565E+00  0.335281056E+01  0.251452596E+01
   C  0.943214565E+00  0.335281056E+01  0.251452596E+01
   C -0.400263178E+01 -0.157121834E+01  0.249986320E+01
   C  0.400263178E+01 -0.157121834E+01  0.249986320E+01
   H -0.131660204E+02  0.207077689E+02  0.215995233E+01
   H  0.131660204E+02  0.207077689E+02  0.215995233E+01
   H -0.256946062E+02 -0.410295441E+01  0.233231714E+01
   H  0.256946062E+02 -0.410295441E+01  0.233231714E+01
  Xx  0.126561283E-15  0.406304519E-01 -0.273906667E+04
    11
 # iter = 59500  time[fs]=59.50000
   N -0.338377528E+01 -0.309379221E+01  0.249330553E+01
   N  0.338377528E+01 -0.309379221E+01  0.249330553E+01
   C -0.942613953E+00  0.336216813E+01  0.251447678E+01
   C  0.942613953E+00  0.336216813E+01  0.251447678E+01
   C -0.401839236E+01 -0.157158965E+01  0.249982047E+01
   C  0.401839236E+01 -0.157158965E+01  0.249982047E+01
   H -0.132297899E+02  0.208064056E+02  0.215821771E+01
   H  0.132297899E+02  0.208064056E+02  0.215821771E+01
   H -0.258162993E+02 -0.412691809E+01  0.233152347E+01
   H  0.258162993E+02 -0.412691809E+01  0.233152347E+01
  Xx  0.127098469E-15  0.408029477E-01 -0.275070830E+04
    11
 # iter = 59750  time[fs]=59.75000
   N -0.339274294E+01 -0.310908584E+01  0.249326250E+01
   N  0.339274294E+01 -0.310908584E+01  0.249326250E+01
   C -0.941772768E+00  0.337151964E+01  0.251442755E+01
   C  0.941772768E+00  0.337151964E+01  0.251442755E+01
   C -0.403407463E+01 -0.157219335E+01  0.249973016E+01
   C  0.403407463E+01 -0.157219335E+01  0.249973016E+01
   H -0.132935905E+02  0.209050866E+02  0.215648205E+01
   H  0.132935905E+02  0.209050866E+02  0.215648205E+01
   H -0.259380369E+02 -0.415089827E+01  0.233072981E+01
   H  0.259380369E+02 -0.415089827E+01  0.233072981E+01
  Xx  0.127635655E-15  0.409754434E-01 -0.276234993E+04
    11
 # iter = 60000  time[fs]=60.00000
   N -0.340178694E+01 -0.312417368E+01  0.249319954E+01
   N  0.340178694E+01 -0.312417368E+01  0.249319954E+01
   C -0.940702716E+00  0.338087037E+01  0.251436368E+01
   C  0.940702716E+00  0.338087037E+01  0.251436368E+01
   C -0.404969619E+01 -0.157302810E+01  0.249967430E+01
   C  0.404969619E+01 -0.157302810E+01  0.249967430E+01
   H -0.133574222E+02  0.210038121E+02  0.215474554E+01
   H  0.133574222E+02  0.210038121E+02  0.215474554E+01
   H -0.260598189E+02 -0.417489410E+01  0.232993614E+01
   H  0.260598189E+02 -0.417489410E+01  0.232993614E+01
  Xx  0.128172841E-15  0.411479392E-01 -0.277399156E+04
