    11
 # iter =     0  time[fs]= 0.00000
   N -0.668466338E+00 -0.116463086E+01  0.250000000E+01
   N  0.668466338E+00 -0.116463086E+01  0.250000000E+01
   C -0.692277627E+00  0.124916000E+01  0.250000000E+01
   C  0.692277627E+00  0.124916000E+01  0.250000000E+01
   C -0.132315667E+01  0.433975300E-03  0.250000000E+01
   C  0.132315667E+01  0.433975300E-03  0.250000000E+01
   H -0.127180384E+01  0.216832769E+01  0.250000000E+01
   H  0.127180384E+01  0.216832769E+01  0.250000000E+01
   H -0.240769469E+01 -0.832907948E-01  0.250000000E+01
   H  0.240769469E+01 -0.832907948E-01  0.250000000E+01
  Xx  0.200000000E+02  0.000000000E+00  0.250000000E+01
    11
 # iter =   250  time[fs]= 0.25000
   N -0.668481251E+00 -0.116465090E+01  0.250000000E+01
   N  0.668475782E+00 -0.116465050E+01  0.250000000E+01
   C -0.692275600E+00  0.124913945E+01  0.250000000E+01
   C  0.692267980E+00  0.124913933E+01  0.250000000E+01
   C -0.132313270E+01  0.428845705E-03  0.250000000E+01
   C  0.132312106E+01  0.428893907E-03  0.250000000E+01
   H -0.127181879E+01  0.216833288E+01  0.250000000E+01
   H  0.127178874E+01  0.216833067E+01  0.250000000E+01
   H -0.240779102E+01 -0.832959082E-01  0.250000000E+01
   H  0.240774677E+01 -0.832962684E-01  0.250000000E+01
  Xx  0.835700086E+01 -0.668667664E-06  0.250000000E+01
    11
 # iter =   500  time[fs]= 0.50000
   N -0.669259871E+00 -0.116431672E+01  0.250000000E+01
   N  0.668965529E+00 -0.116559664E+01  0.250000000E+01
   C -0.693097217E+00  0.124888216E+01  0.250000000E+01
   C  0.693282202E+00  0.125091713E+01  0.250000000E+01
   C -0.132318082E+01  0.435302796E-03  0.250000000E+01
   C -0.159378610E+01 -0.244412828E+01  0.250000000E+01
   H -0.127235517E+01  0.216886559E+01  0.250000000E+01
   H  0.127228034E+01  0.216933585E+01  0.250000000E+01
   H -0.240851375E+01 -0.833240188E-01  0.250000000E+01
   H  0.240707412E+01 -0.126497340E+00  0.250000000E+01
  Xx -0.712434331E+00  0.193747111E+01  0.250000000E+01
    11
 # iter =   750  time[fs]= 0.75000
   N -0.673316253E+00 -0.116222073E+01  0.249999964E+01
   N  0.672253855E+00 -0.116919078E+01  0.249999965E+01
   C -0.700173328E+00  0.124269570E+01  0.249999970E+01
   C  0.700365408E+00  0.125796932E+01  0.249999971E+01
   C -0.132437583E+01  0.594972670E-03  0.249999968E+01
   C -0.896206963E+01 -0.862764419E+01  0.249999939E+01
   H -0.131417427E+01  0.214537244E+01  0.249999807E+01
   H  0.127935047E+01  0.217871458E+01  0.249999857E+01
   H -0.241590618E+01 -0.836159719E-01  0.249999824E+01
   H  0.241279559E+01 -0.214837433E+00  0.249999835E+01
  Xx -0.585080083E+01  0.684492878E+01  0.249999934E+01
    11
 # iter =  1000  time[fs]= 1.00000
   N -0.678523677E+00 -0.116189059E+01  0.249999818E+01
   N  0.677576177E+00 -0.117352514E+01  0.249999806E+01
   C -0.707402762E+00  0.123745359E+01  0.249999841E+01
   C  0.708844528E+00  0.126496234E+01  0.249999836E+01
   C -0.132716100E+01  0.772974649E-03  0.249999863E+01
   C -0.163299196E+02 -0.148107746E+02  0.249999694E+01
   H -0.136703288E+01  0.213154733E+01  0.249999144E+01
   H  0.129308988E+01  0.219770617E+01  0.249999352E+01
   H -0.243328057E+01 -0.849345645E-01  0.249999030E+01
   H  0.242420544E+01 -0.302993255E+00  0.249999066E+01
  Xx -0.109897892E+02  0.117537759E+02  0.249999664E+01
    11
 # iter =  1250  time[fs]= 1.25000
   N -0.684904614E+00 -0.116327863E+01  0.249999606E+01
   N  0.684872544E+00 -0.117853475E+01  0.249999573E+01
   C -0.714797312E+00  0.123305169E+01  0.249999640E+01
   C  0.718635844E+00  0.127195347E+01  0.249999697E+01
   C -0.133129427E+01  0.108107565E-02  0.249999720E+01
   C -0.236977809E+02 -0.209939305E+02  0.249999406E+01
   H -0.142922055E+01  0.213062533E+01  0.249998051E+01
   H  0.131304748E+01  0.222545329E+01  0.249998674E+01
   H -0.246080642E+01 -0.872064066E-01  0.249997959E+01
   H  0.244128767E+01 -0.390882118E+00  0.249998074E+01
  Xx -0.161289372E+02  0.166627909E+02  0.249999281E+01
    11
 # iter =  1500  time[fs]= 1.50000
   N -0.692245405E+00 -0.116637815E+01  0.249999276E+01
   N  0.694057131E+00 -0.118433799E+01  0.249999310E+01
   C -0.722182818E+00  0.122958794E+01  0.249999320E+01
   C  0.729614061E+00  0.127897446E+01  0.249999493E+01
   C -0.133685840E+01  0.163837998E-02  0.249999519E+01
   C -0.310656587E+02 -0.271771092E+02  0.249999118E+01
   H -0.150036579E+01  0.214074941E+01  0.249996610E+01
   H  0.133830842E+01  0.226096692E+01  0.249997834E+01
   H -0.249877293E+01 -0.904682113E-01  0.249996455E+01
   H  0.246396614E+01 -0.478490935E+00  0.249996954E+01
  Xx -0.212681624E+02  0.215719043E+02  0.249998887E+01
    11
 # iter =  1750  time[fs]= 1.75000
   N -0.700591910E+00 -0.117125046E+01  0.249998903E+01
   N  0.704917596E+00 -0.119080379E+01  0.249999022E+01
   C -0.729376295E+00  0.122740605E+01  0.249999024E+01
   C  0.741580381E+00  0.128592490E+01  0.249999221E+01
   C -0.134387735E+01  0.227379336E-02  0.249999219E+01
   C -0.384335426E+02 -0.333603009E+02  0.249998829E+01
   H -0.157954473E+01  0.216085861E+01  0.249994886E+01
   H  0.136902120E+01  0.230452377E+01  0.249996982E+01
   H -0.254656623E+01 -0.944626609E-01  0.249995199E+01
   H  0.249235557E+01 -0.565708065E+00  0.249995666E+01
  Xx -0.264074332E+02  0.264810748E+02  0.249998493E+01
    11
 # iter =  2000  time[fs]= 2.00000
   N -0.709899462E+00 -0.117778451E+01  0.249998505E+01
   N  0.717529059E+00 -0.119795740E+01  0.249998701E+01
   C -0.736770312E+00  0.122628644E+01  0.249998730E+01
   C  0.754771651E+00  0.129287840E+01  0.249998918E+01
   C -0.135223138E+01  0.288852292E-02  0.249998997E+01
   C -0.458014266E+02 -0.395434976E+02  0.249998541E+01
   H -0.166690147E+01  0.219092224E+01  0.249993174E+01
   H  0.140554848E+01  0.235574482E+01  0.249995847E+01
   H -0.260320914E+01 -0.993089132E-01  0.249993957E+01
   H  0.252626501E+01 -0.652843950E+00  0.249994092E+01
  Xx -0.315467341E+02  0.313902824E+02  0.249998099E+01
    11
 # iter =  2250  time[fs]= 2.25000
   N -0.719987728E+00 -0.118600129E+01  0.249998018E+01
   N  0.731599501E+00 -0.120585829E+01  0.249998403E+01
   C -0.744010137E+00  0.122637221E+01  0.249998339E+01
   C  0.768876873E+00  0.130001345E+01  0.249998615E+01
   C -0.136213010E+01  0.361832296E-02  0.249998764E+01
   C -0.531693106E+02 -0.457266942E+02  0.249998253E+01
   H -0.176208703E+01  0.222939464E+01  0.249991464E+01
   H  0.144708432E+01  0.241380280E+01  0.249994683E+01
   H -0.266764908E+01 -0.104944695E+00  0.249992248E+01
   H  0.256614287E+01 -0.740145427E+00  0.249991972E+01
  Xx -0.366860556E+02  0.362995141E+02  0.249997705E+01
    11
 # iter =  2500  time[fs]= 2.50000
   N -0.730581632E+00 -0.119605345E+01  0.249997523E+01
   N  0.746801991E+00 -0.121436639E+01  0.249998066E+01
   C -0.751198137E+00  0.122783214E+01  0.249997954E+01
   C  0.783989640E+00  0.130727602E+01  0.249998338E+01
   C -0.137354356E+01  0.452668066E-02  0.249998595E+01
   C -0.605371946E+02 -0.519098909E+02  0.249997965E+01
   H -0.186340744E+01  0.227483853E+01  0.249989804E+01
   H  0.149317847E+01  0.247789791E+01  0.249993578E+01
   H -0.273989313E+01 -0.111823259E+00  0.249990439E+01
   H  0.261176620E+01 -0.827722517E+00  0.249989606E+01
  Xx -0.418253949E+02  0.412087636E+02  0.249997312E+01
    11
 # iter =  2750  time[fs]= 2.75000
   N -0.741839016E+00 -0.120769128E+01  0.249997059E+01
   N  0.763322600E+00 -0.122346192E+01  0.249997777E+01
   C -0.758475399E+00  0.123055425E+01  0.249997632E+01
   C  0.800125650E+00  0.131475799E+01  0.249998081E+01
   C -0.138634512E+01  0.543948766E-02  0.249998409E+01
   C -0.679050786E+02 -0.580930875E+02  0.249997677E+01
   H -0.196999762E+01  0.232633173E+01  0.249988446E+01
   H  0.154332860E+01  0.254781978E+01  0.249991973E+01
   H -0.281963880E+01 -0.119549309E+00  0.249988556E+01
   H  0.266274194E+01 -0.915652297E+00  0.249987618E+01
  Xx -0.469647519E+02  0.461180309E+02  0.249996918E+01
    11
 # iter =  3000  time[fs]= 3.00000
   N -0.753734495E+00 -0.122092091E+01  0.249996635E+01
   N  0.781037875E+00 -0.123310100E+01  0.249997558E+01
   C -0.765638703E+00  0.123473386E+01  0.249997347E+01
   C  0.816965785E+00  0.132233695E+01  0.249997799E+01
   C -0.140051595E+01  0.637172235E-02  0.249998073E+01
   C -0.752729626E+02 -0.642762842E+02  0.249997388E+01
   H -0.208008951E+01  0.238263085E+01  0.249986946E+01
   H  0.159756835E+01  0.262351044E+01  0.249990289E+01
   H -0.290720428E+01 -0.128333892E+00  0.249986605E+01
   H  0.271891560E+01 -0.100416108E+01  0.249985304E+01
  Xx -0.521041233E+02  0.510273159E+02  0.249996524E+01
    11
 # iter =  3250  time[fs]= 3.25000
   N -0.765802996E+00 -0.123594856E+01  0.249996189E+01
   N  0.799682586E+00 -0.124317654E+01  0.249997373E+01
   C -0.772660676E+00  0.124028582E+01  0.249997098E+01
   C  0.834414609E+00  0.133007484E+01  0.249997504E+01
   C -0.141597486E+01  0.769350346E-02  0.249997687E+01
   C -0.826408466E+02 -0.704594808E+02  0.249997100E+01
   H -0.219317386E+01  0.244311516E+01  0.249984947E+01
   H  0.165495662E+01  0.270398361E+01  0.249988404E+01
   H -0.300358652E+01 -0.138211489E+00  0.249984678E+01
   H  0.278005505E+01 -0.109324218E+01  0.249983120E+01
  Xx -0.572434960E+02  0.559366153E+02  0.249996130E+01
    11
 # iter =  3500  time[fs]= 3.50000
   N -0.778188346E+00 -0.125252128E+01  0.249995750E+01
   N  0.819157990E+00 -0.125374699E+01  0.249997149E+01
   C -0.779701657E+00  0.124690684E+01  0.249996860E+01
   C  0.852476466E+00  0.133805520E+01  0.249997176E+01
   C -0.143264290E+01  0.949909512E-02  0.249997208E+01
   C -0.900087306E+02 -0.766426775E+02  0.249996812E+01
   H -0.230922028E+01  0.250747033E+01  0.249982591E+01
   H  0.171546457E+01  0.278889905E+01  0.249986011E+01
   H -0.310675873E+01 -0.148883434E+00  0.249982388E+01
   H  0.284614680E+01 -0.118305540E+01  0.249980989E+01
  Xx -0.623828687E+02  0.608459159E+02  0.249995736E+01
    11
 # iter =  3750  time[fs]= 3.75000
   N -0.790870473E+00 -0.127052994E+01  0.249995432E+01
   N  0.839559473E+00 -0.126468309E+01  0.249996806E+01
   C -0.786710975E+00  0.125476072E+01  0.249996646E+01
   C  0.871225741E+00  0.134614859E+01  0.249996887E+01
   C -0.145054798E+01  0.115575735E-01  0.249996695E+01
   C -0.973766147E+02 -0.828258742E+02  0.249996524E+01
   H -0.242826673E+01  0.257532642E+01  0.249980297E+01
   H  0.177911702E+01  0.287819492E+01  0.249983332E+01
   H -0.321612775E+01 -0.160232357E+00  0.249980417E+01
   H  0.291676029E+01 -0.127373284E+01  0.249978102E+01
  Xx -0.675222414E+02  0.657552165E+02  0.249995342E+01
    11
 # iter =  4000  time[fs]= 4.00000
   N -0.803981120E+00 -0.128962598E+01  0.249995169E+01
   N  0.860735920E+00 -0.127603003E+01  0.249996530E+01
   C -0.793772392E+00  0.126393958E+01  0.249996510E+01
   C  0.890774373E+00  0.135450200E+01  0.249996510E+01
   C -0.146946524E+01  0.132375880E-01  0.249996170E+01
   C -0.104744499E+03 -0.890090708E+02  0.249996236E+01
   H -0.255023591E+01  0.264663927E+01  0.249977382E+01
   H  0.184605577E+01  0.297182741E+01  0.249980583E+01
   H -0.333152275E+01 -0.172647825E+00  0.249977818E+01
   H  0.299134550E+01 -0.136543548E+01  0.249974657E+01
  Xx -0.726616141E+02  0.706645171E+02  0.249994948E+01
    11
 # iter =  4250  time[fs]= 4.25000
   N -0.817543106E+00 -0.130969144E+01  0.249994996E+01
   N  0.882825170E+00 -0.128764582E+01  0.249996166E+01
   C -0.801068557E+00  0.127415229E+01  0.249996387E+01
   C  0.911115438E+00  0.136314625E+01  0.249996190E+01
   C -0.148941720E+01  0.147998109E-01  0.249995654E+01
   C -0.112112383E+03 -0.951922675E+02  0.249995947E+01
   H -0.267468642E+01  0.272100160E+01  0.249974296E+01
   H  0.191587121E+01  0.306960084E+01  0.249977542E+01
   H -0.345175728E+01 -0.185680876E+00  0.249975105E+01
   H  0.306967601E+01 -0.145822648E+01  0.249971199E+01
  Xx -0.778009868E+02  0.755738177E+02  0.249994554E+01
    11
 # iter =  4500  time[fs]= 4.50000
   N -0.831305253E+00 -0.133071075E+01  0.249994854E+01
   N  0.905733790E+00 -0.129952786E+01  0.249995754E+01
   C -0.808398372E+00  0.128533179E+01  0.249996393E+01
   C  0.932203442E+00  0.137187248E+01  0.249995892E+01
   C -0.151042922E+01  0.163623168E-01  0.249995055E+01
   C -0.119480267E+03 -0.101375464E+03  0.249995659E+01
   H -0.280168391E+01  0.279817049E+01  0.249971137E+01
   H  0.198825174E+01  0.317100216E+01  0.249973796E+01
   H -0.357678513E+01 -0.199461920E+00  0.249971580E+01
   H  0.315136769E+01 -0.155207580E+01  0.249967530E+01
  Xx -0.829403595E+02  0.804831184E+02  0.249994160E+01
    11
 # iter =  4750  time[fs]= 4.75000
   N -0.845472563E+00 -0.135239785E+01  0.249994657E+01
   N  0.929377487E+00 -0.131167982E+01  0.249995369E+01
   C -0.815618612E+00  0.129765725E+01  0.249996545E+01
   C  0.953817546E+00  0.138087430E+01  0.249995557E+01
   C -0.153234984E+01  0.173853327E-01  0.249994499E+01
   C -0.126848151E+03 -0.107558661E+03  0.249995371E+01
   H -0.293079868E+01  0.287786985E+01  0.249967625E+01
   H  0.206297071E+01  0.327582250E+01  0.249970087E+01
   H -0.370585834E+01 -0.213832179E+00  0.249967737E+01
   H  0.323623207E+01 -0.164707722E+01  0.249963315E+01
  Xx -0.880797322E+02  0.853924190E+02  0.249993766E+01
    11
 # iter =  5000  time[fs]= 5.00000
   N -0.859839511E+00 -0.137506511E+01  0.249994393E+01
   N  0.953719158E+00 -0.132409851E+01  0.249995079E+01
   C -0.822811648E+00  0.131087823E+01  0.249996799E+01
   C  0.975939686E+00  0.139014029E+01  0.249995160E+01
   C -0.155517830E+01  0.184564319E-01  0.249994002E+01
   C -0.134216035E+03 -0.113741857E+03  0.249995083E+01
   H -0.306173709E+01  0.295986642E+01  0.249963744E+01
   H  0.213989975E+01  0.338384382E+01  0.249966384E+01
   H -0.383864264E+01 -0.229030374E+00  0.249963467E+01
   H  0.332420366E+01 -0.174312087E+01  0.249958466E+01
  Xx -0.932191049E+02  0.903017196E+02  0.249993372E+01
    11
 # iter =  5250  time[fs]= 5.25000
   N -0.874462338E+00 -0.139866480E+01  0.249994204E+01
   N  0.978676458E+00 -0.133668225E+01  0.249994816E+01
   C -0.830260555E+00  0.132470786E+01  0.249997000E+01
   C  0.998613545E+00  0.139959104E+01  0.249994767E+01
   C -0.157869895E+01  0.199169040E-01  0.249993425E+01
   C -0.141583919E+03 -0.119925054E+03  0.249994794E+01
   H -0.319441526E+01  0.304373720E+01  0.249959576E+01
   H  0.221877684E+01  0.349489845E+01  0.249962436E+01
   H -0.397464097E+01 -0.244756823E+00  0.249958922E+01
   H  0.341513890E+01 -0.184022553E+01  0.249953900E+01
  Xx -0.983584777E+02  0.952110202E+02  0.249992979E+01
    11
 # iter =  5500  time[fs]= 5.50000
   N -0.889256124E+00 -0.142324584E+01  0.249994044E+01
   N  0.100424916E+01 -0.134941398E+01  0.249994538E+01
   C -0.837823622E+00  0.133908267E+01  0.249997093E+01
   C  0.102177257E+01  0.140919378E+01  0.249994454E+01
   C -0.160296437E+01  0.217014399E-01  0.249992857E+01
   C -0.148951803E+03 -0.126108251E+03  0.249994506E+01
   H -0.332875659E+01  0.312951820E+01  0.249955170E+01
   H  0.229951920E+01  0.360854936E+01  0.249958185E+01
   H -0.411374662E+01 -0.260939140E+00  0.249954409E+01
   H  0.350853685E+01 -0.193840979E+01  0.249948715E+01
  Xx -0.103497850E+03  0.100120321E+03  0.249992585E+01
    11
 # iter =  5750  time[fs]= 5.75000
   N -0.904377890E+00 -0.144869675E+01  0.249993949E+01
   N  0.103042725E+01 -0.136239368E+01  0.249994209E+01
   C -0.845320899E+00  0.135412529E+01  0.249997251E+01
   C  0.104531051E+01  0.141902305E+01  0.249994082E+01
   C -0.162794606E+01  0.237741876E-01  0.249992256E+01
   C -0.156319687E+03 -0.132291447E+03  0.249994218E+01
   H -0.346456879E+01  0.321706016E+01  0.249950570E+01
   H  0.238183211E+01  0.372449884E+01  0.249953756E+01
   H -0.425573670E+01 -0.277587226E+00  0.249949171E+01
   H  0.360438858E+01 -0.203762473E+01  0.249943424E+01
  Xx -0.108637223E+03  0.105029621E+03  0.249992191E+01
    11
 # iter =  6000  time[fs]= 6.00000
   N -0.919612728E+00 -0.147505325E+01  0.249993869E+01
   N  0.105699502E+01 -0.137557374E+01  0.249993827E+01
   C -0.852969837E+00  0.136964642E+01  0.249997463E+01
   C  0.106919397E+01  0.142908984E+01  0.249993693E+01
   C -0.165360701E+01  0.261228766E-01  0.249991733E+01
   C -0.163687571E+03 -0.138474644E+03  0.249993930E+01
   H -0.360175186E+01  0.330612263E+01  0.249945768E+01
   H  0.246571170E+01  0.384276652E+01  0.249948900E+01
   H -0.440022055E+01 -0.294683659E+00  0.249943537E+01
   H  0.370237956E+01 -0.213777514E+01  0.249938247E+01
  Xx -0.113776596E+03  0.109938922E+03  0.249991797E+01
    11
 # iter =  6250  time[fs]= 6.25000
   N -0.935089013E+00 -0.150216581E+01  0.249993701E+01
   N  0.108395386E+01 -0.138890658E+01  0.249993522E+01
   C -0.860770013E+00  0.138571885E+01  0.249997725E+01
   C  0.109360687E+01  0.143935794E+01  0.249993403E+01
   C -0.167984920E+01  0.285963843E-01  0.249991326E+01
   C -0.171055455E+03 -0.144657841E+03  0.249993642E+01
   H -0.374021736E+01  0.339671248E+01  0.249940801E+01
   H  0.255104355E+01  0.396316752E+01  0.249943749E+01
   H -0.454696022E+01 -0.312335643E+00  0.249937474E+01
   H  0.380249221E+01 -0.223884677E+01  0.249932741E+01
  Xx -0.118915968E+03  0.114848223E+03  0.249991403E+01
    11
 # iter =  6500  time[fs]= 6.50000
   N -0.950899697E+00 -0.152984006E+01  0.249993497E+01
   N  0.111124209E+01 -0.140248431E+01  0.249993183E+01
   C -0.868596055E+00  0.140246724E+01  0.249997863E+01
   C  0.111830128E+01  0.144977994E+01  0.249993123E+01
   C -0.170670695E+01  0.310433404E-01  0.249990906E+01
   C -0.178423339E+03 -0.150841037E+03  0.249993353E+01
   H -0.387986351E+01  0.348870650E+01  0.249935771E+01
   H  0.263771301E+01  0.408568146E+01  0.249938307E+01
   H -0.469597719E+01 -0.330410069E+00  0.249931646E+01
   H  0.390446926E+01 -0.234084977E+01  0.249926736E+01
  Xx -0.124055341E+03  0.119757523E+03  0.249991009E+01
    11
 # iter =  6750  time[fs]= 6.75000
   N -0.967091514E+00 -0.155788515E+01  0.249993301E+01
   N  0.113896791E+01 -0.141632480E+01  0.249992911E+01
   C -0.876361469E+00  0.141988181E+01  0.249997928E+01
   C  0.114344683E+01  0.146041086E+01  0.249992838E+01
   C -0.173410375E+01  0.331508054E-01  0.249990489E+01
   C -0.185791223E+03 -0.157024234E+03  0.249993065E+01
   H -0.402063775E+01  0.358203574E+01  0.249930820E+01
   H  0.272564361E+01  0.420991725E+01  0.249932910E+01
   H -0.484691660E+01 -0.349042997E+00  0.249925657E+01
   H  0.400815583E+01 -0.244372617E+01  0.249920353E+01
  Xx -0.129194714E+03  0.124666824E+03  0.249990615E+01
    11
 # iter =  7000  time[fs]= 7.00000
   N -0.983623635E+00 -0.158625467E+01  0.249993221E+01
   N  0.116715776E+01 -0.143041585E+01  0.249992561E+01
   C -0.884117534E+00  0.143788214E+01  0.249997988E+01
   C  0.116896905E+01  0.147131064E+01  0.249992557E+01
   C -0.176203664E+01  0.350305510E-01  0.249990032E+01
   C -0.193159107E+03 -0.163207431E+03  0.249992777E+01
   H -0.416252973E+01  0.367650797E+01  0.249925345E+01
   H  0.281473731E+01  0.433581263E+01  0.249927887E+01
   H -0.499983111E+01 -0.368095588E+00  0.249919442E+01
   H  0.411333131E+01 -0.254738458E+01  0.249914348E+01
  Xx -0.134334087E+03  0.129576125E+03  0.249990221E+01
    11
 # iter =  7250  time[fs]= 7.25000
   N -0.100032331E+01 -0.161511308E+01  0.249993106E+01
   N  0.119576331E+01 -0.144471465E+01  0.249992227E+01
   C -0.892016509E+00  0.145632388E+01  0.249998068E+01
   C  0.119491486E+01  0.148238052E+01  0.249992322E+01
   C -0.179050355E+01  0.369340891E-01  0.249989512E+01
   C -0.200526991E+03 -0.169390627E+03  0.249992489E+01
   H -0.430540720E+01  0.377211489E+01  0.249919902E+01
   H  0.290489165E+01  0.446329651E+01  0.249922644E+01
   H -0.515445164E+01 -0.387591524E+00  0.249913454E+01
   H  0.421989352E+01 -0.265184968E+01  0.249908257E+01
  Xx -0.139473459E+03  0.134485425E+03  0.249989827E+01
    11
 # iter =  7500  time[fs]= 7.50000
   N -0.101712607E+01 -0.164446634E+01  0.249992968E+01
   N  0.122475465E+01 -0.145921602E+01  0.249991837E+01
   C -0.899982597E+00  0.147528949E+01  0.249998168E+01
   C  0.122125489E+01  0.149357940E+01  0.249992073E+01
   C -0.181944371E+01  0.388206802E-01  0.249989008E+01
   C -0.207894875E+03 -0.175573824E+03  0.249992201E+01
   H -0.444919291E+01  0.386873620E+01  0.249914759E+01
   H  0.299603893E+01  0.459218684E+01  0.249917287E+01
   H -0.531059986E+01 -0.407450407E+00  0.249907474E+01
   H  0.432772290E+01 -0.275704240E+01  0.249901874E+01
  Xx -0.144612832E+03  0.139394726E+03  0.249989433E+01
    11
 # iter =  7750  time[fs]= 7.75000
   N -0.103403812E+01 -0.167430129E+01  0.249992869E+01
   N  0.125409155E+01 -0.147393932E+01  0.249991462E+01
   C -0.907996641E+00  0.149483459E+01  0.249998320E+01
   C  0.124794105E+01  0.150497201E+01  0.249991795E+01
   C -0.184888165E+01  0.406154071E-01  0.249988557E+01
   C -0.215262759E+03 -0.181757021E+03  0.249991912E+01
   H -0.459384769E+01  0.396636472E+01  0.249909326E+01
   H  0.308806160E+01  0.472238105E+01  0.249911895E+01
   H -0.546830952E+01 -0.427642732E+00  0.249900999E+01
   H  0.443668781E+01 -0.286283471E+01  0.249895367E+01
  Xx -0.149752205E+03  0.144304026E+03  0.249989039E+01
    11
 # iter =  8000  time[fs]= 8.00000
   N -0.105105195E+01 -0.170464274E+01  0.249992826E+01
   N  0.128371860E+01 -0.148885267E+01  0.249991075E+01
   C -0.915957550E+00  0.151493191E+01  0.249998465E+01
   C  0.127491156E+01  0.151650624E+01  0.249991460E+01
   C -0.187882075E+01  0.423984921E-01  0.249988116E+01
   C -0.222630643E+03 -0.187940217E+03  0.249991624E+01
   H -0.473929450E+01  0.406490577E+01  0.249903476E+01
   H  0.318088071E+01  0.485377340E+01  0.249906231E+01
   H -0.562736840E+01 -0.448198203E+00  0.249894661E+01
   H  0.454683658E+01 -0.296933546E+01  0.249888888E+01
  Xx -0.154891577E+03  0.149213327E+03  0.249988646E+01
    11
 # iter =  8250  time[fs]= 8.25000
   N -0.106801374E+01 -0.173536129E+01  0.249992806E+01
   N  0.131349572E+01 -0.150396633E+01  0.249990688E+01
   C -0.923968189E+00  0.153548174E+01  0.249998703E+01
   C  0.130218042E+01  0.152815343E+01  0.249991078E+01
   C -0.190922890E+01  0.440082965E-01  0.249987685E+01
   C -0.229998527E+03 -0.194123414E+03  0.249991336E+01
   H -0.488547512E+01  0.416428779E+01  0.249897871E+01
   H  0.327453601E+01  0.498631083E+01  0.249900280E+01
   H -0.578767870E+01 -0.469099954E+00  0.249887726E+01
   H  0.465805429E+01 -0.307652807E+01  0.249882583E+01
  Xx -0.160030950E+03  0.154122628E+03  0.249988252E+01
    11
 # iter =  8500  time[fs]= 8.50000
   N -0.108497132E+01 -0.176647695E+01  0.249992751E+01
   N  0.134341191E+01 -0.151926604E+01  0.249990328E+01
   C -0.932021412E+00  0.155647741E+01  0.249998923E+01
   C  0.132980657E+01  0.154006334E+01  0.249990610E+01
   C -0.194016509E+01  0.455731162E-01  0.249987285E+01
   C -0.237366411E+03 -0.200306611E+03  0.249991048E+01
   H -0.503232086E+01  0.426446931E+01  0.249891955E+01
   H  0.336891909E+01  0.511987627E+01  0.249894031E+01
   H -0.594915150E+01 -0.490253088E+00  0.249880570E+01
   H  0.477019748E+01 -0.318427241E+01  0.249876174E+01
  Xx -0.165170323E+03  0.159031928E+03  0.249987858E+01
    11
 # iter =  8750  time[fs]= 8.75000
   N -0.110191258E+01 -0.179792064E+01  0.249992671E+01
   N  0.137346603E+01 -0.153469510E+01  0.249989981E+01
   C -0.940127460E+00  0.157785739E+01  0.249999178E+01
   C  0.135778252E+01  0.155211630E+01  0.249990226E+01
   C -0.197154342E+01  0.471217230E-01  0.249986865E+01
   C -0.244734295E+03 -0.206489807E+03  0.249990759E+01
   H -0.517981610E+01  0.436537593E+01  0.249885526E+01
   H  0.346400187E+01  0.525443521E+01  0.249887885E+01
   H -0.611178132E+01 -0.511707637E+00  0.249873135E+01
   H  0.488325298E+01 -0.329260486E+01  0.249869758E+01
  Xx -0.170309696E+03  0.163941229E+03  0.249987464E+01
    11
 # iter =  9000  time[fs]= 9.00000
   N -0.111886669E+01 -0.182958918E+01  0.249992599E+01
   N  0.140370611E+01 -0.155022775E+01  0.249989587E+01
   C -0.948298967E+00  0.159961534E+01  0.249999533E+01
   C  0.138610633E+01  0.156433764E+01  0.249989835E+01
   C -0.200335005E+01  0.485202117E-01  0.249986388E+01
   C -0.252102179E+03 -0.212673004E+03  0.249990471E+01
   H -0.532798026E+01  0.446701475E+01  0.249879372E+01
   H  0.355972375E+01  0.538990233E+01  0.249881632E+01
   H -0.627542241E+01 -0.533458506E+00  0.249865332E+01
   H  0.499715049E+01 -0.340145914E+01  0.249863328E+01
  Xx -0.175449068E+03  0.168850530E+03  0.249987070E+01
    11
 # iter =  9250  time[fs]= 9.25000
   N -0.113582694E+01 -0.186145429E+01  0.249992515E+01
   N  0.143414913E+01 -0.156586014E+01  0.249989179E+01
   C -0.956581183E+00  0.162180493E+01  0.249999931E+01
   C  0.141481045E+01  0.157667957E+01  0.249989390E+01
   C -0.203553612E+01  0.498049485E-01  0.249985856E+01
   C -0.259470063E+03 -0.218856201E+03  0.249990183E+01
   H -0.547674296E+01  0.456929695E+01  0.249873121E+01
   H  0.365608838E+01  0.552622046E+01  0.249875225E+01
   H -0.643999336E+01 -0.555479914E+00  0.249857831E+01
   H  0.511187283E+01 -0.351082879E+01  0.249856552E+01
  Xx -0.180588441E+03  0.173759830E+03  0.249986676E+01
    11
 # iter =  9500  time[fs]= 9.50000
   N -0.115283226E+01 -0.189355632E+01  0.249992472E+01
   N  0.146478842E+01 -0.158157843E+01  0.249988794E+01
   C -0.964969638E+00  0.164428946E+01  0.250000261E+01
   C  0.144375206E+01  0.158916541E+01  0.249989055E+01
   C -0.206810720E+01  0.509671285E-01  0.249985351E+01
   C -0.266837947E+03 -0.225039397E+03  0.249989895E+01
   H -0.562602219E+01  0.467224884E+01  0.249866819E+01
   H  0.375303197E+01  0.566337755E+01  0.249868416E+01
   H -0.660553473E+01 -0.577758279E+00  0.249850085E+01
   H  0.522731923E+01 -0.362072030E+01  0.249849701E+01
  Xx -0.185727814E+03  0.178669131E+03  0.249986282E+01
    11
 # iter =  9750  time[fs]= 9.75000
   N -0.116988976E+01 -0.192597647E+01  0.249992359E+01
   N  0.149564601E+01 -0.159738061E+01  0.249988415E+01
   C -0.973397569E+00  0.166717043E+01  0.250000591E+01
   C  0.147301266E+01  0.160182878E+01  0.249988711E+01
   C -0.210105429E+01  0.520708777E-01  0.249984913E+01
   C -0.274205831E+03 -0.231222594E+03  0.249989607E+01
   H -0.577577580E+01  0.477577029E+01  0.249860401E+01
   H  0.385050124E+01  0.580128780E+01  0.249861719E+01
   H -0.677192698E+01 -0.600271082E+00  0.249842265E+01
   H  0.534351655E+01 -0.373112226E+01  0.249842807E+01
  Xx -0.190867186E+03  0.183578431E+03  0.249985888E+01
    11
 # iter = 10000  time[fs]=10.00000
   N -0.118708048E+01 -0.195874710E+01  0.249992217E+01
   N  0.152668219E+01 -0.161326758E+01  0.249988024E+01
   C -0.981931339E+00  0.169045170E+01  0.250000934E+01
   C  0.150254310E+01  0.161456613E+01  0.249988358E+01
   C -0.213423468E+01  0.531646974E-01  0.249984551E+01
   C -0.281573715E+03 -0.237405791E+03  0.249989318E+01
   H -0.592603441E+01  0.487983426E+01  0.249853509E+01
   H  0.394846268E+01  0.593994040E+01  0.249855125E+01
   H -0.693916904E+01 -0.623036225E+00  0.249834374E+01
   H  0.546038705E+01 -0.384199881E+01  0.249836022E+01
  Xx -0.196006559E+03  0.188487732E+03  0.249985494E+01