    11
 # iter =     0  time[fs]= 0.00000
   N -0.668466338E+00 -0.116463086E+01  0.250000000E+01
   N  0.668466338E+00 -0.116463086E+01  0.250000000E+01
   C -0.692277627E+00  0.124916000E+01  0.250000000E+01
   C  0.692277627E+00  0.124916000E+01  0.250000000E+01
   C -0.132315667E+01  0.433975300E-03  0.250000000E+01
   C  0.132315667E+01  0.433975300E-03  0.250000000E+01
   H -0.127180384E+01  0.216832769E+01  0.250000000E+01
   H  0.127180384E+01  0.216832769E+01  0.250000000E+01
   H -0.240769469E+01 -0.832907948E-01  0.250000000E+01
   H  0.240769469E+01 -0.832907948E-01  0.250000000E+01
  Xx  0.173205081E+02 -0.100000000E+02  0.250000000E+01
    11
 # iter =   250  time[fs]= 0.25000
   N -0.668481602E+00 -0.116464992E+01  0.250000000E+01
   N  0.668475822E+00 -0.116464844E+01  0.250000000E+01
   C -0.692274664E+00  0.124914042E+01  0.250000000E+01
   C  0.692269385E+00  0.124914148E+01  0.250000000E+01
   C -0.132313248E+01  0.431105705E-03  0.250000000E+01
   C  0.132312279E+01  0.432295042E-03  0.250000000E+01
   H -0.127181648E+01  0.216833648E+01  0.250000000E+01
   H  0.127179912E+01  0.216833746E+01  0.250000000E+01
   H -0.240778950E+01 -0.832936261E-01  0.250000000E+01
   H  0.240775416E+01 -0.832813479E-01  0.250000000E+01
  Xx  0.723737409E+01 -0.417850062E+01  0.250000000E+01
    11
 # iter =   500  time[fs]= 0.50000
   N -0.668740266E+00 -0.116487145E+01  0.250000000E+01
   N  0.667826085E+00 -0.116581896E+01  0.250000000E+01
   C -0.692116249E+00  0.124952116E+01  0.250000000E+01
   C  0.692282282E+00  0.124930510E+01  0.250000000E+01
   C -0.132346731E+01 -0.167055835E-04  0.250000000E+01
   C  0.132352718E+01  0.153425313E-02  0.250000000E+01
   H -0.127198326E+01  0.216900797E+01  0.250000000E+01
   H  0.127206180E+01  0.216880596E+01  0.250000000E+01
   H -0.240871806E+01 -0.835600923E-01  0.250000000E+01
   H  0.240925596E+01 -0.823410567E-01  0.250000000E+01
  Xx -0.284362088E+01  0.164195873E+01  0.250000000E+01
    11
 # iter =   750  time[fs]= 0.75000
   N -0.669812827E+00 -0.116629527E+01  0.249999981E+01
   N  0.666963006E+00 -0.116969609E+01  0.249999983E+01
   C -0.691264993E+00  0.125180998E+01  0.249999972E+01
   C  0.692811691E+00  0.125019518E+01  0.249999974E+01
   C -0.132546358E+01 -0.248036593E-02  0.249999975E+01
   C  0.132534266E+01  0.438171077E-02  0.249999991E+01
   H -0.127484474E+01  0.217872724E+01  0.249999854E+01
   H  0.127555423E+01  0.217432655E+01  0.249999879E+01
   H -0.241923749E+01 -0.867528726E-01  0.249999849E+01
   H  0.242068516E+01 -0.815091915E-01  0.249999862E+01
  Xx -0.129239388E+02  0.746271443E+01  0.249999947E+01
    11
 # iter =  1000  time[fs]= 1.00000
   N -0.671521678E+00 -0.116932190E+01  0.249999909E+01
   N  0.666867753E+00 -0.117485023E+01  0.249999890E+01
   C -0.691020307E+00  0.125474143E+01  0.249999878E+01
   C  0.693757737E+00  0.125195451E+01  0.249999866E+01
   C -0.132820714E+01 -0.443509068E-02  0.249999873E+01
   C  0.132797523E+01  0.723563666E-02  0.249999912E+01
   H -0.128361133E+01  0.219759858E+01  0.249999349E+01
   H  0.128355983E+01  0.218742195E+01  0.249999447E+01
   H -0.244160112E+01 -0.907114043E-01  0.249999296E+01
   H  0.244363266E+01 -0.820339881E-01  0.249999365E+01
  Xx -0.230045268E+02  0.132836942E+02  0.249999730E+01
    11
 # iter =  1250  time[fs]= 1.25000
   N -0.674078637E+00 -0.117374599E+01  0.249999808E+01
   N  0.667539559E+00 -0.118134785E+01  0.249999793E+01
   C -0.691364150E+00  0.125804452E+01  0.249999714E+01
   C  0.695172488E+00  0.125466443E+01  0.249999735E+01
   C -0.133161422E+01 -0.599822299E-02  0.249999716E+01
   C  0.133150346E+01  0.101485093E-01  0.249999787E+01
   H -0.129766530E+01  0.222541921E+01  0.249998585E+01
   H  0.129646673E+01  0.220805837E+01  0.249998870E+01
   H -0.247453902E+01 -0.957134310E-01  0.249998650E+01
   H  0.247774783E+01 -0.840716759E-01  0.249998623E+01
  Xx -0.330852027E+02  0.191047245E+02  0.249999494E+01
    11
 # iter =  1500  time[fs]= 1.50000
   N -0.677337757E+00 -0.117936146E+01  0.249999683E+01
   N  0.668891791E+00 -0.118924875E+01  0.249999640E+01
   C -0.692108212E+00  0.126214075E+01  0.249999484E+01
   C  0.697400749E+00  0.125812459E+01  0.249999578E+01
   C -0.133603896E+01 -0.772897654E-02  0.249999501E+01
   C  0.133554817E+01  0.134033531E-01  0.249999575E+01
   H -0.131692149E+01  0.226193986E+01  0.249997715E+01
   H  0.131393664E+01  0.223597659E+01  0.249998095E+01
   H -0.251707633E+01 -0.102095429E+00  0.249997880E+01
   H  0.252335055E+01 -0.866583137E-01  0.249997869E+01
  Xx -0.431659202E+02  0.249257790E+02  0.249999259E+01
    11
 # iter =  1750  time[fs]= 1.75000
   N -0.681204650E+00 -0.118635772E+01  0.249999505E+01
   N  0.670979414E+00 -0.119830620E+01  0.249999471E+01
   C -0.693484813E+00  0.126707598E+01  0.249999269E+01
   C  0.700141513E+00  0.126224279E+01  0.249999384E+01
   C -0.134129615E+01 -0.929792724E-02  0.249999247E+01
   C  0.134020996E+01  0.165917849E-01  0.249999289E+01
   H -0.134038271E+01  0.230573594E+01  0.249996646E+01
   H  0.133664368E+01  0.227194269E+01  0.249997184E+01
   H -0.256909009E+01 -0.109288000E+00  0.249996833E+01
   H  0.257888830E+01 -0.898435831E-01  0.249997017E+01
  Xx -0.532466605E+02  0.307468471E+02  0.249999023E+01
    11
 # iter =  2000  time[fs]= 2.00000
   N -0.685691787E+00 -0.119463175E+01  0.249999279E+01
   N  0.673755800E+00 -0.120847281E+01  0.249999297E+01
   C -0.695406204E+00  0.127291692E+01  0.249999077E+01
   C  0.703472448E+00  0.126699435E+01  0.249999195E+01
   C -0.134726429E+01 -0.109184569E-01  0.249998947E+01
   C  0.134563668E+01  0.198048289E-01  0.249999083E+01
   H -0.136709144E+01  0.235570826E+01  0.249995301E+01
   H  0.136453822E+01  0.231602695E+01  0.249996217E+01
   H -0.263140981E+01 -0.117137598E+00  0.249995602E+01
   H  0.264242602E+01 -0.934922015E-01  0.249995729E+01
  Xx -0.633274186E+02  0.365679214E+02  0.249998787E+01
    11
 # iter =  2250  time[fs]= 2.25000
   N -0.690727950E+00 -0.120402114E+01  0.249999069E+01
   N  0.677004881E+00 -0.122002471E+01  0.249999188E+01
   C -0.697564772E+00  0.127975347E+01  0.249998914E+01
   C  0.707401246E+00  0.127220609E+01  0.249999004E+01
   C -0.135416723E+01 -0.126843311E-01  0.249998653E+01
   C  0.135167540E+01  0.235188378E-01  0.249998826E+01
   H -0.139709003E+01  0.241108038E+01  0.249993926E+01
   H  0.139654544E+01  0.236724603E+01  0.249995114E+01
   H -0.270245282E+01 -0.126108763E+00  0.249994036E+01
   H  0.271447064E+01 -0.978039837E-01  0.249994153E+01
  Xx -0.734081867E+02  0.423889958E+02  0.249998551E+01
    11
 # iter =  2500  time[fs]= 2.50000
   N -0.696208619E+00 -0.121464143E+01  0.249998824E+01
   N  0.680830563E+00 -0.123268371E+01  0.249999136E+01
   C -0.700048102E+00  0.128731275E+01  0.249998780E+01
   C  0.711624771E+00  0.127816308E+01  0.249998816E+01
   C -0.136207402E+01 -0.143292856E-01  0.249998304E+01
   C  0.135837962E+01  0.273042644E-01  0.249998527E+01
   H -0.143007439E+01  0.247202162E+01  0.249992446E+01
   H  0.143234062E+01  0.242492485E+01  0.249993701E+01
   H -0.278046650E+01 -0.136055749E+00  0.249992375E+01
   H  0.279444045E+01 -0.102889563E+00  0.249992395E+01
  Xx -0.834889548E+02  0.482100703E+02  0.249998315E+01
    11
 # iter =  2750  time[fs]= 2.75000
   N -0.702372710E+00 -0.122635976E+01  0.249998636E+01
   N  0.685480803E+00 -0.124634206E+01  0.249999107E+01
   C -0.702874886E+00  0.129542055E+01  0.249998697E+01
   C  0.716283024E+00  0.128495262E+01  0.249998606E+01
   C -0.137080450E+01 -0.157756219E-01  0.249997955E+01
   C  0.136573911E+01  0.310666126E-01  0.249998287E+01
   H -0.146623047E+01  0.253864422E+01  0.249990789E+01
   H  0.147138256E+01  0.248811151E+01  0.249992124E+01
   H -0.286562081E+01 -0.146290805E+00  0.249990551E+01
   H  0.288107276E+01 -0.108978124E+00  0.249990274E+01
  Xx -0.935697230E+02  0.540311448E+02  0.249998080E+01
    11
 # iter =  3000  time[fs]= 3.00000
   N -0.708864604E+00 -0.123911802E+01  0.249998426E+01
   N  0.690673027E+00 -0.126096320E+01  0.249999096E+01
   C -0.706116207E+00  0.130415678E+01  0.249998596E+01
   C  0.721422135E+00  0.129248640E+01  0.249998399E+01
   C -0.138042735E+01 -0.172093492E-01  0.249997606E+01
   C  0.137384952E+01  0.348114219E-01  0.249998020E+01
   H -0.150577497E+01  0.261120182E+01  0.249989289E+01
   H  0.151370529E+01  0.255618603E+01  0.249990546E+01
   H -0.295726807E+01 -0.157351809E+00  0.249988617E+01
   H  0.297321614E+01 -0.115818883E+00  0.249987872E+01
  Xx -0.103650491E+03  0.598522193E+02  0.249997844E+01
    11
 # iter =  3250  time[fs]= 3.25000
   N -0.715913586E+00 -0.125278319E+01  0.249998221E+01
   N  0.696422375E+00 -0.127646596E+01  0.249999079E+01
   C -0.709674043E+00  0.131352727E+01  0.249998511E+01
   C  0.726948489E+00  0.130062669E+01  0.249998108E+01
   C -0.139080348E+01 -0.185733262E-01  0.249997237E+01
   C  0.138263946E+01  0.385206857E-01  0.249997772E+01
   H -0.154859568E+01  0.268888528E+01  0.249987719E+01
   H  0.155928650E+01  0.262932953E+01  0.249989054E+01
   H -0.305425285E+01 -0.169197231E+00  0.249986529E+01
   H  0.307117232E+01 -0.123221290E+00  0.249985271E+01
  Xx -0.113731259E+03  0.656732937E+02  0.249997608E+01
    11
 # iter =  3500  time[fs]= 3.50000
   N -0.723454921E+00 -0.126746224E+01  0.249998016E+01
   N  0.702816669E+00 -0.129265595E+01  0.249999056E+01
   C -0.713578868E+00  0.132355263E+01  0.249998492E+01
   C  0.732666371E+00  0.130941060E+01  0.249997804E+01
   C -0.140199304E+01 -0.197210202E-01  0.249996843E+01
   C  0.139211066E+01  0.420530106E-01  0.249997574E+01
   H -0.159383165E+01  0.277058855E+01  0.249986053E+01
   H  0.160795258E+01  0.270758612E+01  0.249987844E+01
   H -0.315630915E+01 -0.181708214E+00  0.249984303E+01
   H  0.317463620E+01 -0.131192000E+00  0.249982592E+01
  Xx -0.123812027E+03  0.714943682E+02  0.249997372E+01
    11
 # iter =  3750  time[fs]= 3.75000
   N -0.731322403E+00 -0.128332750E+01  0.249997834E+01
   N  0.709845752E+00 -0.130933828E+01  0.249999055E+01
   C -0.717853772E+00  0.133413667E+01  0.249998401E+01
   C  0.738688026E+00  0.131903047E+01  0.249997431E+01
   C -0.141412192E+01 -0.204382068E-01  0.249996444E+01
   C  0.140222013E+01  0.452362524E-01  0.249997388E+01
   H -0.164151478E+01  0.285592535E+01  0.249984453E+01
   H  0.165929465E+01  0.279012601E+01  0.249986624E+01
   H -0.326325421E+01 -0.194831833E+00  0.249981958E+01
   H  0.328323025E+01 -0.139735981E+00  0.249979851E+01
  Xx -0.133892796E+03  0.773154427E+02  0.249997136E+01
    11
 # iter =  4000  time[fs]= 4.00000
   N -0.739670738E+00 -0.129993310E+01  0.249997611E+01
   N  0.717373017E+00 -0.132665222E+01  0.249999034E+01
   C -0.722526316E+00  0.134538626E+01  0.249998330E+01
   C  0.745056962E+00  0.132940932E+01  0.249997018E+01
   C -0.142704483E+01 -0.211473673E-01  0.249996062E+01
   C  0.141302535E+01  0.481711760E-01  0.249997235E+01
   H -0.169127273E+01  0.294501774E+01  0.249982767E+01
   H  0.171301939E+01  0.287662055E+01  0.249985126E+01
   H -0.337447433E+01 -0.208263600E+00  0.249979331E+01
   H  0.339649788E+01 -0.148781531E+00  0.249976951E+01
  Xx -0.143973564E+03  0.831365172E+02  0.249996900E+01
    11
 # iter =  4250  time[fs]= 4.25000
   N -0.748327600E+00 -0.131731139E+01  0.249997482E+01
   N  0.725366906E+00 -0.134460304E+01  0.249999026E+01
   C -0.727546584E+00  0.135734373E+01  0.249998239E+01
   C  0.752008375E+00  0.134010836E+01  0.249996637E+01
   C -0.144081923E+01 -0.219581291E-01  0.249995674E+01
   C  0.142446497E+01  0.512723219E-01  0.249997001E+01
   H -0.174342170E+01  0.303818514E+01  0.249980991E+01
   H  0.176905514E+01  0.296678495E+01  0.249983644E+01
   H -0.348986305E+01 -0.222207123E+00  0.249976512E+01
   H  0.351367240E+01 -0.158341354E+00  0.249973969E+01
  Xx -0.154054332E+03  0.889575916E+02  0.249996665E+01
    11
 # iter =  4500  time[fs]= 4.50000
   N -0.757251641E+00 -0.133544924E+01  0.249997285E+01
   N  0.733788099E+00 -0.136317171E+01  0.249999027E+01
   C -0.732773861E+00  0.137002408E+01  0.249998262E+01
   C  0.759339087E+00  0.135107894E+01  0.249996237E+01
   C -0.145547933E+01 -0.227117065E-01  0.249995287E+01
   C  0.143641268E+01  0.546402031E-01  0.249996790E+01
   H -0.179768860E+01  0.313483756E+01  0.249979319E+01
   H  0.182713735E+01  0.306028207E+01  0.249982065E+01
   H -0.360902049E+01 -0.236630453E+00  0.249973286E+01
   H  0.363451566E+01 -0.168365956E+00  0.249970891E+01
  Xx -0.164135100E+03  0.947786661E+02  0.249996429E+01
    11
 # iter =  4750  time[fs]= 4.75000
   N -0.766383246E+00 -0.135439120E+01  0.249997133E+01
   N  0.742587931E+00 -0.138226842E+01  0.249999028E+01
   C -0.738363841E+00  0.138321720E+01  0.249998233E+01
   C  0.766941452E+00  0.136256788E+01  0.249995914E+01
   C -0.147087320E+01 -0.232429344E-01  0.249994900E+01
   C  0.144896270E+01  0.579373014E-01  0.249996570E+01
   H -0.185375517E+01  0.323441166E+01  0.249977317E+01
   H  0.188717902E+01  0.315703919E+01  0.249980306E+01
   H -0.373171139E+01 -0.251538347E+00  0.249969840E+01
   H  0.375895722E+01 -0.178807860E+00  0.249967584E+01
  Xx -0.174215868E+03  0.100599741E+03  0.249996193E+01
    11
 # iter =  5000  time[fs]= 5.00000
   N -0.775757615E+00 -0.137384223E+01  0.249996980E+01
   N  0.751601569E+00 -0.140206386E+01  0.249999027E+01
   C -0.744432927E+00  0.139694856E+01  0.249998242E+01
   C  0.775043294E+00  0.137452389E+01  0.249995568E+01
   C -0.148688526E+01 -0.236619952E-01  0.249994487E+01
   C  0.146216093E+01  0.612039864E-01  0.249996442E+01
   H -0.191149851E+01  0.333664503E+01  0.249975261E+01
   H  0.194911100E+01  0.325662420E+01  0.249978472E+01
   H -0.385778322E+01 -0.266901714E+00  0.249966512E+01
   H  0.388659427E+01 -0.189729796E+00  0.249964109E+01
  Xx -0.184296636E+03  0.106420815E+03  0.249995957E+01
    11
 # iter =  5250  time[fs]= 5.25000
   N -0.785132406E+00 -0.139407343E+01  0.249996839E+01
   N  0.760800077E+00 -0.142245408E+01  0.249998975E+01
   C -0.750932006E+00  0.141113238E+01  0.249998155E+01
   C  0.783648919E+00  0.138684023E+01  0.249995229E+01
   C -0.150354741E+01 -0.239416763E-01  0.249994085E+01
   C  0.147588257E+01  0.646500835E-01  0.249996248E+01
   H -0.197104019E+01  0.344173373E+01  0.249973253E+01
   H  0.201278657E+01  0.335879426E+01  0.249976516E+01
   H -0.398706014E+01 -0.282737543E+00  0.249962948E+01
   H  0.401709211E+01 -0.200945388E+00  0.249960239E+01
  Xx -0.194377404E+03  0.112241890E+03  0.249995721E+01
    11
 # iter =  5500  time[fs]= 5.50000
   N -0.794775084E+00 -0.141502463E+01  0.249996724E+01
   N  0.770378208E+00 -0.144334690E+01  0.249998958E+01
   C -0.757548276E+00  0.142588391E+01  0.249998070E+01
   C  0.792434050E+00  0.139957668E+01  0.249994890E+01
   C -0.152092614E+01 -0.240748225E-01  0.249993686E+01
   C  0.149011277E+01  0.680017528E-01  0.249996079E+01
   H -0.203212702E+01  0.354942867E+01  0.249971091E+01
   H  0.207785343E+01  0.346339670E+01  0.249974787E+01
   H -0.411922393E+01 -0.299072981E+00  0.249959384E+01
   H  0.415037809E+01 -0.212585791E+00  0.249956111E+01
  Xx -0.204458172E+03  0.118062964E+03  0.249995486E+01
    11
 # iter =  5750  time[fs]= 5.75000
   N -0.804631373E+00 -0.143650286E+01  0.249996605E+01
   N  0.780241071E+00 -0.146484809E+01  0.249998874E+01
   C -0.764592772E+00  0.144098384E+01  0.249997948E+01
   C  0.801522785E+00  0.141263168E+01  0.249994628E+01
   C -0.153878968E+01 -0.240838326E-01  0.249993240E+01
   C  0.150487728E+01  0.714168178E-01  0.249995875E+01
   H -0.209471892E+01  0.365942382E+01  0.249968548E+01
   H  0.214453363E+01  0.357045002E+01  0.249972602E+01
   H -0.425417337E+01 -0.315788040E+00  0.249955383E+01
   H  0.428616019E+01 -0.224524175E+00  0.249951807E+01
  Xx -0.214538941E+03  0.123884039E+03  0.249995250E+01
    11
 # iter =  6000  time[fs]= 6.00000
   N -0.814506931E+00 -0.145843608E+01  0.249996528E+01
   N  0.790276757E+00 -0.148688734E+01  0.249998852E+01
   C -0.772031036E+00  0.145645273E+01  0.249997845E+01
   C  0.810897553E+00  0.142614645E+01  0.249994328E+01
   C -0.155713599E+01 -0.239875041E-01  0.249992776E+01
   C  0.152015922E+01  0.746844338E-01  0.249995762E+01
   H -0.215863310E+01  0.377176539E+01  0.249965987E+01
   H  0.221256371E+01  0.367970027E+01  0.249970245E+01
   H -0.439162142E+01 -0.332817125E+00  0.249950886E+01
   H  0.442424074E+01 -0.236854267E+00  0.249947228E+01
  Xx -0.224619709E+03  0.129705113E+03  0.249995014E+01
    11
 # iter =  6250  time[fs]= 6.25000
   N -0.824489973E+00 -0.148099339E+01  0.249996407E+01
   N  0.800491066E+00 -0.150942837E+01  0.249998812E+01
   C -0.779630264E+00  0.147224108E+01  0.249997788E+01
   C  0.820345831E+00  0.144015454E+01  0.249994057E+01
   C -0.157597650E+01 -0.237257466E-01  0.249992386E+01
   C  0.153594419E+01  0.779470302E-01  0.249995648E+01
   H -0.222389571E+01  0.388612042E+01  0.249963232E+01
   H  0.228188919E+01  0.379100281E+01  0.249967784E+01
   H -0.453153382E+01 -0.350197562E+00  0.249946614E+01
   H  0.456452455E+01 -0.249578434E+00  0.249942580E+01
  Xx -0.234700477E+03  0.135526187E+03  0.249994778E+01
    11
 # iter =  6500  time[fs]= 6.50000
   N -0.834703089E+00 -0.150392916E+01  0.249996290E+01
   N  0.810982569E+00 -0.153230294E+01  0.249998764E+01
   C -0.787339841E+00  0.148857227E+01  0.249997697E+01
   C  0.829939341E+00  0.145437088E+01  0.249993771E+01
   C -0.159524511E+01 -0.236236710E-01  0.249991989E+01
   C  0.155216019E+01  0.811764531E-01  0.249995531E+01
   H -0.229027598E+01  0.400244135E+01  0.249960287E+01
   H  0.235240660E+01  0.390422796E+01  0.249965009E+01
   H -0.467373683E+01 -0.367927535E+00  0.249942197E+01
   H  0.470678275E+01 -0.262561338E+00  0.249937541E+01
  Xx -0.244781245E+03  0.141347262E+03  0.249994542E+01
    11
 # iter =  6750  time[fs]= 6.75000
   N -0.845266297E+00 -0.152713510E+01  0.249996213E+01
   N  0.821792287E+00 -0.155547705E+01  0.249998686E+01
   C -0.795188083E+00  0.150532946E+01  0.249997584E+01
   C  0.839617875E+00  0.146884442E+01  0.249993448E+01
   C -0.161483580E+01 -0.236294879E-01  0.249991650E+01
   C  0.156869359E+01  0.843390812E-01  0.249995434E+01
   H -0.235770524E+01  0.412040800E+01  0.249957346E+01
   H  0.242402083E+01  0.401930624E+01  0.249962021E+01
   H -0.481796491E+01 -0.385964958E+00  0.249937831E+01
   H  0.485102902E+01 -0.275882258E+00  0.249932456E+01
  Xx -0.254862013E+03  0.147168336E+03  0.249994307E+01
    11
 # iter =  7000  time[fs]= 7.00000
   N -0.856102567E+00 -0.155060176E+01  0.249996128E+01
   N  0.832914854E+00 -0.157890999E+01  0.249998590E+01
   C -0.803105759E+00  0.152235425E+01  0.249997489E+01
   C  0.849247833E+00  0.148358587E+01  0.249993214E+01
   C -0.163480048E+01 -0.236240200E-01  0.249991314E+01
   C  0.158565024E+01  0.873856800E-01  0.249995336E+01
   H -0.242614598E+01  0.424002177E+01  0.249954353E+01
   H  0.249667872E+01  0.413606578E+01  0.249958775E+01
   H -0.496412873E+01 -0.404270586E+00  0.249933241E+01
   H  0.499711820E+01 -0.289511931E+00  0.249927379E+01
  Xx -0.264942781E+03  0.152989411E+03  0.249994071E+01
    11
 # iter =  7250  time[fs]= 7.25000
   N -0.867123969E+00 -0.157436546E+01  0.249996066E+01
   N  0.844216810E+00 -0.160259357E+01  0.249998469E+01
   C -0.810927448E+00  0.153976944E+01  0.249997357E+01
   C  0.858926955E+00  0.149854712E+01  0.249993022E+01
   C -0.165517956E+01 -0.236865055E-01  0.249991025E+01
   C  0.160290180E+01  0.904801328E-01  0.249995268E+01
   H -0.249554748E+01  0.436124269E+01  0.249951375E+01
   H  0.257034594E+01  0.425446153E+01  0.249955112E+01
   H -0.511211100E+01 -0.422894272E+00  0.249928453E+01
   H  0.514481612E+01 -0.303340851E+00  0.249921883E+01
  Xx -0.275023549E+03  0.158810485E+03  0.249993835E+01
    11
 # iter =  7500  time[fs]= 7.50000
   N -0.878322950E+00 -0.159831757E+01  0.249996021E+01
   N  0.855657984E+00 -0.162664349E+01  0.249998354E+01
   C -0.818885039E+00  0.155748820E+01  0.249997221E+01
   C  0.868701229E+00  0.151371301E+01  0.249992856E+01
   C -0.167591415E+01 -0.237872260E-01  0.249990721E+01
   C  0.162055629E+01  0.936078790E-01  0.249995188E+01
   H -0.256582894E+01  0.448388665E+01  0.249948294E+01
   H  0.264494687E+01  0.437433834E+01  0.249951265E+01
   H -0.526180917E+01 -0.441761824E+00  0.249923518E+01
   H  0.529417556E+01 -0.317497565E+00  0.249916440E+01
  Xx -0.285104318E+03  0.164631560E+03  0.249993599E+01
    11
 # iter =  7750  time[fs]= 7.75000
   N -0.889712130E+00 -0.162240655E+01  0.249995925E+01
   N  0.867262017E+00 -0.165094791E+01  0.249998294E+01
   C -0.826994611E+00  0.157554966E+01  0.249997088E+01
   C  0.878595841E+00  0.152917960E+01  0.249992706E+01
   C -0.169696955E+01 -0.240789717E-01  0.249990396E+01
   C  0.163854561E+01  0.966551784E-01  0.249995068E+01
   H -0.263697115E+01  0.460796441E+01  0.249945194E+01
   H  0.272034965E+01  0.449557057E+01  0.249947304E+01
   H -0.541309364E+01 -0.460862591E+00  0.249918310E+01
   H  0.544498962E+01 -0.331876584E+00  0.249910831E+01
  Xx -0.295185086E+03  0.170452634E+03  0.249993363E+01
    11
 # iter =  8000  time[fs]= 8.00000
   N -0.901320845E+00 -0.164674557E+01  0.249995813E+01
   N  0.879088755E+00 -0.167550738E+01  0.249998227E+01
   C -0.835255327E+00  0.159387048E+01  0.249996962E+01
   C  0.888705900E+00  0.154483632E+01  0.249992552E+01
   C -0.171835169E+01 -0.244343769E-01  0.249990146E+01
   C  0.165680382E+01  0.996315020E-01  0.249994926E+01
   H -0.270886706E+01  0.473338011E+01  0.249942177E+01
   H  0.279661712E+01  0.461807503E+01  0.249943258E+01
   H -0.556589569E+01 -0.480223724E+00  0.249912892E+01
   H  0.559714328E+01 -0.346435211E+00  0.249905066E+01
  Xx -0.305265854E+03  0.176273709E+03  0.249993127E+01
    11
 # iter =  8250  time[fs]= 8.25000
   N -0.913007812E+00 -0.167147074E+01  0.249995675E+01
   N  0.891111878E+00 -0.170027996E+01  0.249998165E+01
   C -0.843572429E+00  0.161254564E+01  0.249996912E+01
   C  0.898858005E+00  0.156064391E+01  0.249992445E+01
   C -0.174006728E+01 -0.248625232E-01  0.249989879E+01
   C  0.167528482E+01  0.102659223E+00  0.249994727E+01
   H -0.278146546E+01  0.485992134E+01  0.249938976E+01
   H  0.287370573E+01  0.474174015E+01  0.249939093E+01
   H -0.572011565E+01 -0.499791952E+00  0.249907306E+01
   H  0.575062616E+01 -0.361228910E+00  0.249899247E+01
  Xx -0.315346622E+03  0.182094783E+03  0.249992892E+01
    11
 # iter =  8500  time[fs]= 8.50000
   N -0.924767081E+00 -0.169665654E+01  0.249995546E+01
   N  0.903259039E+00 -0.172534187E+01  0.249998153E+01
   C -0.851883828E+00  0.163156768E+01  0.249996771E+01
   C  0.909100660E+00  0.157655760E+01  0.249992374E+01
   C -0.176221428E+01 -0.252395664E-01  0.249989604E+01
   C  0.169402264E+01  0.105751067E+00  0.249994579E+01
   H -0.285479649E+01  0.498762441E+01  0.249935364E+01
   H  0.295147011E+01  0.486650804E+01  0.249934625E+01
   H -0.587565701E+01 -0.519563838E+00  0.249901418E+01
   H  0.590532819E+01 -0.376211406E+00  0.249893058E+01
  Xx -0.325427390E+03  0.187915858E+03  0.249992656E+01
    11
 # iter =  8750  time[fs]= 8.75000
   N -0.936629054E+00 -0.172214421E+01  0.249995443E+01
   N  0.915485103E+00 -0.175069453E+01  0.249998159E+01
   C -0.860286764E+00  0.165087292E+01  0.249996609E+01
   C  0.919485503E+00  0.159265595E+01  0.249992267E+01
   C -0.178463666E+01 -0.255214401E-01  0.249989339E+01
   C  0.171299353E+01  0.108860730E+00  0.249994440E+01
   H -0.292872115E+01  0.511636175E+01  0.249931793E+01
   H  0.302990105E+01  0.499239449E+01  0.249930034E+01
   H -0.603242518E+01 -0.539528377E+00  0.249895395E+01
   H  0.606116842E+01 -0.391352011E+00  0.249886807E+01
  Xx -0.335508158E+03  0.193736932E+03  0.249992420E+01
    11
 # iter =  9000  time[fs]= 9.00000
   N -0.948681241E+00 -0.174788143E+01  0.249995370E+01
   N  0.927913986E+00 -0.177637447E+01  0.249998153E+01
   C -0.868886850E+00  0.167044529E+01  0.249996542E+01
   C  0.930060784E+00  0.160898203E+01  0.249992190E+01
   C -0.180733746E+01 -0.258304665E-01  0.249989011E+01
   C  0.173224910E+01  0.111993276E+00  0.249994266E+01
   H -0.300324503E+01  0.524607176E+01  0.249928443E+01
   H  0.310895627E+01  0.511919967E+01  0.249925357E+01
   H -0.619035684E+01 -0.559733149E+00  0.249889151E+01
   H  0.621812299E+01 -0.406696265E+00  0.249880423E+01
  Xx -0.345588926E+03  0.199558007E+03  0.249992184E+01
    11
 # iter =  9250  time[fs]= 9.25000
   N -0.961035116E+00 -0.177382854E+01  0.249995392E+01
   N  0.940628074E+00 -0.180227779E+01  0.249998071E+01
   C -0.877535417E+00  0.169025794E+01  0.249996523E+01
   C  0.940633862E+00  0.162555444E+01  0.249992071E+01
   C -0.183026969E+01 -0.262594949E-01  0.249988660E+01
   C  0.175183520E+01  0.115091276E+00  0.249994170E+01
   H -0.307835868E+01  0.537677635E+01  0.249925042E+01
   H  0.318861625E+01  0.524701470E+01  0.249920404E+01
   H -0.634937710E+01 -0.580128268E+00  0.249882813E+01
   H  0.637609583E+01 -0.422247525E+00  0.249873951E+01
  Xx -0.355669694E+03  0.205379081E+03  0.249991948E+01
    11
 # iter =  9500  time[fs]= 9.50000
   N -0.973711225E+00 -0.179992706E+01  0.249995457E+01
   N  0.953741499E+00 -0.182836430E+01  0.249997958E+01
   C -0.886319508E+00  0.171025737E+01  0.249996510E+01
   C  0.951288765E+00  0.164234482E+01  0.249991989E+01
   C -0.185339115E+01 -0.266648540E-01  0.249988278E+01
   C  0.177159572E+01  0.118097138E+00  0.249994034E+01
   H -0.315400221E+01  0.550836049E+01  0.249921406E+01
   H  0.326883839E+01  0.537570877E+01  0.249915304E+01
   H -0.650945735E+01 -0.600750121E+00  0.249876426E+01
   H  0.653505535E+01 -0.437947429E+00  0.249867432E+01
  Xx -0.365750463E+03  0.211200156E+03  0.249991713E+01
    11
 # iter =  9750  time[fs]= 9.75000
   N -0.986626206E+00 -0.182613255E+01  0.249995500E+01
   N  0.967167888E+00 -0.185456230E+01  0.249997826E+01
   C -0.895141550E+00  0.173050267E+01  0.249996497E+01
   C  0.962029344E+00  0.165937312E+01  0.249991885E+01
   C -0.187681726E+01 -0.271039803E-01  0.249987907E+01
   C  0.179152461E+01  0.120943361E+00  0.249993950E+01
   H -0.323019047E+01  0.564084548E+01  0.249917777E+01
   H  0.334962353E+01  0.550528380E+01  0.249909867E+01
   H -0.667050735E+01 -0.621558708E+00  0.249869734E+01
   H  0.669493134E+01 -0.453819571E+00  0.249860770E+01
  Xx -0.375831231E+03  0.217021230E+03  0.249991477E+01
    11
 # iter = 10000  time[fs]=10.00000
   N -0.999654159E+00 -0.185244562E+01  0.249995497E+01
   N  0.980881264E+00 -0.188093290E+01  0.249997714E+01
   C -0.904018359E+00  0.175096424E+01  0.249996466E+01
   C  0.972862490E+00  0.167664928E+01  0.249991789E+01
   C -0.190057627E+01 -0.276090885E-01  0.249987534E+01
   C  0.181164227E+01  0.123657553E+00  0.249993829E+01
   H -0.330687329E+01  0.577413293E+01  0.249914231E+01
   H  0.343090331E+01  0.563567844E+01  0.249904368E+01
   H -0.683246019E+01 -0.642532850E+00  0.249862885E+01
   H  0.685567880E+01 -0.469859142E+00  0.249854050E+01
  Xx -0.385911999E+03  0.222842305E+03  0.249991241E+01
    11
 # iter = 10250  time[fs]=10.25000
   N -0.101288114E+01 -0.187876632E+01  0.249995481E+01
   N  0.994797320E+00 -0.190752717E+01  0.249997574E+01
   C -0.913110096E+00  0.177158153E+01  0.249996524E+01
   C  0.983772437E+00  0.169414158E+01  0.249991689E+01
   C -0.192448726E+01 -0.281800218E-01  0.249987247E+01
   C  0.183194296E+01  0.126372949E+00  0.249993731E+01
   H -0.338398861E+01  0.590816970E+01  0.249910474E+01
   H  0.351269298E+01  0.576685044E+01  0.249898761E+01
   H -0.699528171E+01 -0.663697455E+00  0.249855902E+01
   H  0.701731465E+01 -0.486080449E+00  0.249847284E+01
  Xx -0.395992767E+03  0.228663379E+03  0.249991005E+01
    11
 # iter = 10500  time[fs]=10.50000
   N -0.102622075E+01 -0.190525679E+01  0.249995487E+01
   N  0.100890719E+01 -0.193432375E+01  0.249997405E+01
   C -0.922273163E+00  0.179243926E+01  0.249996560E+01
   C  0.994850920E+00  0.171166578E+01  0.249991627E+01
   C -0.194863081E+01 -0.288602647E-01  0.249986913E+01
   C  0.185239012E+01  0.129113607E+00  0.249993623E+01
   H -0.346157920E+01  0.604297361E+01  0.249906402E+01
   H  0.359496243E+01  0.589875090E+01  0.249893343E+01
   H -0.715894972E+01 -0.685037968E+00  0.249848525E+01
   H  0.717968992E+01 -0.502460922E+00  0.249840432E+01
  Xx -0.406073535E+03  0.234484454E+03  0.249990769E+01
    11
 # iter = 10750  time[fs]=10.75000
   N -0.103970305E+01 -0.193193106E+01  0.249995503E+01
   N  0.102314851E+01 -0.196136249E+01  0.249997268E+01
   C -0.931464622E+00  0.181347049E+01  0.249996599E+01
   C  0.100595597E+01  0.172924503E+01  0.249991568E+01
   C -0.197297624E+01 -0.294874811E-01  0.249986594E+01
   C  0.187301402E+01  0.131946894E+00  0.249993578E+01
   H -0.353959961E+01  0.617849820E+01  0.249902343E+01
   H  0.367764318E+01  0.603137398E+01  0.249887551E+01
   H -0.732339084E+01 -0.706505671E+00  0.249841299E+01
   H  0.734287709E+01 -0.518994601E+00  0.249833616E+01
  Xx -0.416154303E+03  0.240305528E+03  0.249990534E+01
    11
 # iter = 11000  time[fs]=11.00000
   N -0.105324873E+01 -0.195883647E+01  0.249995520E+01
   N  0.103749869E+01 -0.198857281E+01  0.249997103E+01
   C -0.940739138E+00  0.183461954E+01  0.249996634E+01
   C  0.101714102E+01  0.174690907E+01  0.249991501E+01
   C -0.199758821E+01 -0.300066919E-01  0.249986326E+01
   C  0.189382062E+01  0.134759970E+00  0.249993504E+01
   H -0.361804825E+01  0.631470200E+01  0.249898291E+01
   H  0.376079338E+01  0.616467391E+01  0.249881458E+01
   H -0.748859839E+01 -0.728146074E+00  0.249834025E+01
   H  0.750677763E+01 -0.535644992E+00  0.249826604E+01
  Xx -0.426235071E+03  0.246126602E+03  0.249990298E+01
    11
 # iter = 11250  time[fs]=11.25000
   N -0.106677219E+01 -0.198598319E+01  0.249995474E+01
   N  0.105191141E+01 -0.201591352E+01  0.249996944E+01
   C -0.950149734E+00  0.185598907E+01  0.249996665E+01
   C  0.102861739E+01  0.176471992E+01  0.249991416E+01
   C -0.202242785E+01 -0.306533626E-01  0.249986040E+01
   C  0.191471966E+01  0.137567095E+00  0.249993490E+01
   H -0.369687057E+01  0.645153245E+01  0.249893936E+01
   H  0.384433494E+01  0.629857161E+01  0.249875456E+01
   H -0.765454007E+01 -0.749934091E+00  0.249826489E+01
   H  0.767135601E+01 -0.552425336E+00  0.249819461E+01
  Xx -0.436315840E+03  0.251947677E+03  0.249990062E+01
    11
 # iter = 11500  time[fs]=11.50000
   N -0.108034683E+01 -0.201323409E+01  0.249995415E+01
   N  0.106638491E+01 -0.204336660E+01  0.249996787E+01
   C -0.959784592E+00  0.187752680E+01  0.249996676E+01
   C  0.104025195E+01  0.178266596E+01  0.249991436E+01
   C -0.204738913E+01 -0.313262772E-01  0.249985783E+01
   C  0.193574944E+01  0.140305254E+00  0.249993447E+01
   H -0.377608265E+01  0.658898374E+01  0.249889641E+01
   H  0.392828337E+01  0.643311787E+01  0.249869263E+01
   H -0.782118633E+01 -0.771853553E+00  0.249818875E+01
   H  0.783662132E+01 -0.569344724E+00  0.249812341E+01
  Xx -0.446396608E+03  0.257768751E+03  0.249989826E+01
    11
 # iter = 11750  time[fs]=11.75000
   N -0.109396751E+01 -0.204059139E+01  0.249995352E+01
   N  0.108088472E+01 -0.207094960E+01  0.249996635E+01
   C -0.969598135E+00  0.189922305E+01  0.249996672E+01
   C  0.105202598E+01  0.180066021E+01  0.249991424E+01
   C -0.207248101E+01 -0.320015039E-01  0.249985517E+01
   C  0.195702919E+01  0.143058161E+00  0.249993348E+01
   H -0.385565908E+01  0.672702656E+01  0.249885384E+01
   H  0.401261363E+01  0.656825696E+01  0.249862864E+01
   H -0.798853153E+01 -0.793918122E+00  0.249811171E+01
   H  0.800251202E+01 -0.586382862E+00  0.249804984E+01
  Xx -0.456477376E+03  0.263589826E+03  0.249989590E+01
    11
 # iter = 12000  time[fs]=12.00000
   N -0.110769175E+01 -0.206805349E+01  0.249995253E+01
   N  0.109547204E+01 -0.209862742E+01  0.249996469E+01
   C -0.979557953E+00  0.192109909E+01  0.249996724E+01
   C  0.106385904E+01  0.181886779E+01  0.249991477E+01
   C -0.209776164E+01 -0.326580611E-01  0.249985286E+01
   C  0.197852674E+01  0.145714156E+00  0.249993285E+01
   H -0.393557415E+01  0.686563050E+01  0.249881096E+01
   H  0.409728824E+01  0.670394129E+01  0.249856524E+01
   H -0.815654858E+01 -0.816116978E+00  0.249803295E+01
   H  0.816905492E+01 -0.603549653E+00  0.249797452E+01
  Xx -0.466558144E+03  0.269410900E+03  0.249989354E+01
    11
 # iter = 12250  time[fs]=12.25000
   N -0.112147644E+01 -0.209560678E+01  0.249995180E+01
   N  0.111011980E+01 -0.212639817E+01  0.249996318E+01
   C -0.989720605E+00  0.194307444E+01  0.249996845E+01
   C  0.107586646E+01  0.183730207E+01  0.249991424E+01
   C -0.212316796E+01 -0.333529035E-01  0.249985045E+01
   C  0.200018337E+01  0.148266485E+00  0.249993253E+01
   H -0.401584498E+01  0.700478705E+01  0.249876737E+01
   H  0.418233324E+01  0.684017505E+01  0.249850215E+01
   H -0.832522771E+01 -0.838458092E+00  0.249795199E+01
   H  0.833622777E+01 -0.620845104E+00  0.249789948E+01
  Xx -0.476638912E+03  0.275231975E+03  0.249989119E+01
    11
 # iter = 12500  time[fs]=12.50000
   N -0.113534894E+01 -0.212326537E+01  0.249995134E+01
   N  0.112487730E+01 -0.215428249E+01  0.249996136E+01
   C -0.999995863E+00  0.196519611E+01  0.249996921E+01
   C  0.108791806E+01  0.185591452E+01  0.249991374E+01
   C -0.214875612E+01 -0.340711336E-01  0.249984828E+01
   C  0.202200306E+01  0.150669160E+00  0.249993188E+01
   H -0.409642126E+01  0.714446004E+01  0.249872215E+01
   H  0.426769634E+01  0.697694517E+01  0.249843744E+01
   H -0.849454469E+01 -0.860943946E+00  0.249786928E+01
   H  0.850401990E+01 -0.638271589E+00  0.249782379E+01
  Xx -0.486719680E+03  0.281053049E+03  0.249988883E+01
    11
 # iter = 12750  time[fs]=12.75000
   N -0.114932425E+01 -0.215106927E+01  0.249995128E+01
   N  0.113974139E+01 -0.218228800E+01  0.249995976E+01
   C -0.101041228E+01  0.198744835E+01  0.249996965E+01
   C  0.110010380E+01  0.187469171E+01  0.249991336E+01
   C -0.217454433E+01 -0.347295852E-01  0.249984611E+01
   C  0.204400340E+01  0.153020788E+00  0.249993132E+01
   H -0.417731521E+01  0.728465454E+01  0.249867537E+01
   H  0.435336240E+01  0.711420319E+01  0.249837172E+01
   H -0.866447943E+01 -0.883557900E+00  0.249778618E+01
   H  0.867241226E+01 -0.655821358E+00  0.249774708E+01
  Xx -0.496800448E+03  0.286874124E+03  0.249988647E+01
    11
 # iter = 13000  time[fs]=13.00000
   N -0.116343202E+01 -0.217899672E+01  0.249995194E+01
   N  0.115473468E+01 -0.221042030E+01  0.249995809E+01
   C -0.102092087E+01  0.200988641E+01  0.249997103E+01
   C  0.111235653E+01  0.189365500E+01  0.249991293E+01
   C -0.220050115E+01 -0.354628951E-01  0.249984313E+01
   C  0.206616076E+01  0.155287661E+00  0.249993031E+01
   H -0.425849311E+01  0.742530625E+01  0.249862819E+01
   H  0.443934004E+01  0.725193445E+01  0.249830631E+01
   H -0.883502287E+01 -0.906290718E+00  0.249770183E+01
   H  0.884138859E+01 -0.673481547E+00  0.249766977E+01
  Xx -0.506881217E+03  0.292695198E+03  0.249988411E+01
    11
 # iter = 13250  time[fs]=13.25000
   N -0.117768002E+01 -0.220709139E+01  0.249995190E+01
   N  0.116988543E+01 -0.223869167E+01  0.249995670E+01
   C -0.103150540E+01  0.203251817E+01  0.249997308E+01
   C  0.112472802E+01  0.191267274E+01  0.249991267E+01
   C -0.222664254E+01 -0.361684435E-01  0.249983995E+01
   C  0.208846187E+01  0.157560824E+00  0.249992910E+01
   H -0.433995231E+01  0.756644017E+01  0.249857975E+01
   H  0.452560910E+01  0.739013419E+01  0.249823985E+01
   H -0.900614551E+01 -0.929145899E+00  0.249761648E+01
   H  0.901094065E+01 -0.691254320E+00  0.249759217E+01
  Xx -0.516961985E+03  0.298516273E+03  0.249988175E+01
    11
 # iter = 13500  time[fs]=13.50000
   N -0.119205967E+01 -0.223539397E+01  0.249995186E+01
   N  0.118516197E+01 -0.226709291E+01  0.249995536E+01
   C -0.104219469E+01  0.205528133E+01  0.249997484E+01
   C  0.113718616E+01  0.193183680E+01  0.249991219E+01
   C -0.225295462E+01 -0.368357008E-01  0.249983683E+01
   C  0.211094373E+01  0.159829563E+00  0.249992830E+01
   H -0.442169613E+01  0.770803239E+01  0.249853063E+01
   H  0.461216153E+01  0.752877809E+01  0.249817310E+01
   H -0.917782384E+01 -0.952127521E+00  0.249753083E+01
   H  0.918105862E+01 -0.709143431E+00  0.249751421E+01
  Xx -0.527042753E+03  0.304337347E+03  0.249987940E+01
    11
 # iter = 13750  time[fs]=13.75000
   N -0.120656469E+01 -0.226386046E+01  0.249995180E+01
   N  0.120055752E+01 -0.229559102E+01  0.249995380E+01
   C -0.105302236E+01  0.207810265E+01  0.249997663E+01
   C  0.114976657E+01  0.195117690E+01  0.249991162E+01
   C -0.227939199E+01 -0.375299716E-01  0.249983460E+01
   C  0.213353935E+01  0.162030014E+00  0.249992769E+01
   H -0.450373115E+01  0.785008063E+01  0.249848173E+01
   H  0.469900973E+01  0.766787019E+01  0.249810680E+01
   H -0.935003125E+01 -0.975237816E+00  0.249744425E+01
   H  0.935172332E+01 -0.727146144E+00  0.249743584E+01
  Xx -0.537123521E+03  0.310158422E+03  0.249987704E+01
    11
 # iter = 14000  time[fs]=14.00000
   N -0.122117764E+01 -0.229242659E+01  0.249995203E+01
   N  0.121607468E+01 -0.232415893E+01  0.249995270E+01
   C -0.106399599E+01  0.210102594E+01  0.249997862E+01
   C  0.116242146E+01  0.197077512E+01  0.249991098E+01
   C -0.230595111E+01 -0.381790791E-01  0.249983200E+01
   C  0.215632122E+01  0.164124385E+00  0.249992693E+01
   H -0.458603595E+01  0.799256596E+01  0.249843209E+01
   H  0.478613771E+01  0.780739776E+01  0.249803901E+01
   H -0.952275094E+01 -0.998463752E+00  0.249735753E+01
   H  0.952291141E+01 -0.745259641E+00  0.249735652E+01
  Xx -0.547204289E+03  0.315979496E+03  0.249987468E+01
    11
 # iter = 14250  time[fs]=14.25000
   N -0.123589424E+01 -0.232105852E+01  0.249995248E+01
   N  0.123168182E+01 -0.235277974E+01  0.249995105E+01
   C -0.107514374E+01  0.212399474E+01  0.249998043E+01
   C  0.117520885E+01  0.199051769E+01  0.249990975E+01
   C -0.233260476E+01 -0.388196014E-01  0.249982910E+01
   C  0.217927899E+01  0.166153160E+00  0.249992607E+01
   H -0.466861204E+01  0.813548492E+01  0.249838134E+01
   H  0.487354165E+01  0.794734967E+01  0.249797016E+01
   H -0.969597995E+01 -0.102180333E+01  0.249727082E+01
   H  0.969460214E+01 -0.763482565E+00  0.249727611E+01
  Xx -0.557285057E+03  0.321800571E+03  0.249987232E+01
    11
 # iter = 14500  time[fs]=14.50000
   N -0.125065169E+01 -0.234974015E+01  0.249995298E+01
   N  0.124737477E+01 -0.238148148E+01  0.249994962E+01
   C -0.108636385E+01  0.214705967E+01  0.249998259E+01
   C  0.118802858E+01  0.201040516E+01  0.249990939E+01
   C -0.235939736E+01 -0.394102317E-01  0.249982654E+01
   C  0.220244144E+01  0.168123842E+00  0.249992611E+01
   H -0.475144998E+01  0.827883197E+01  0.249833057E+01
   H  0.496121898E+01  0.808771363E+01  0.249790121E+01
   H -0.986970901E+01 -0.104525231E+01  0.249718410E+01
   H  0.986678325E+01 -0.781809412E+00  0.249719529E+01
  Xx -0.567365825E+03  0.327621645E+03  0.249986996E+01
    11
 # iter = 14750  time[fs]=14.75000
   N -0.126546343E+01 -0.237850134E+01  0.249995343E+01
   N  0.126313326E+01 -0.241029359E+01  0.249994825E+01
   C -0.109772325E+01  0.217029770E+01  0.249998417E+01
   C  0.120097069E+01  0.203040223E+01  0.249990814E+01
   C -0.238635185E+01 -0.400174764E-01  0.249982405E+01
   C  0.222574270E+01  0.170048152E+00  0.249992685E+01
   H -0.483455022E+01  0.842259334E+01  0.249828012E+01
   H  0.504917422E+01  0.822848959E+01  0.249783159E+01
   H -0.100439142E+02 -0.106880940E+01  0.249709699E+01
   H  0.100394459E+02 -0.800238374E+00  0.249711366E+01
  Xx -0.577446593E+03  0.333442720E+03  0.249986761E+01
    11
 # iter = 15000  time[fs]=15.00000
   N -0.128030953E+01 -0.240735633E+01  0.249995354E+01
   N  0.127892494E+01 -0.243921965E+01  0.249994673E+01
   C -0.110920808E+01  0.219370545E+01  0.249998588E+01
   C  0.121401187E+01  0.205048244E+01  0.249990731E+01
   C -0.241346817E+01 -0.406608634E-01  0.249982106E+01
   C  0.224921872E+01  0.171950111E+00  0.249992684E+01
   H -0.491792064E+01  0.856677640E+01  0.249822941E+01
   H  0.513739984E+01  0.836967325E+01  0.249776067E+01
   H -0.102185863E+02 -0.109247621E+01  0.249700885E+01
   H  0.102125693E+02 -0.818769439E+00  0.249703093E+01
  Xx -0.587527362E+03  0.339263794E+03  0.249986525E+01
    11
 # iter = 15250  time[fs]=15.25000
   N -0.129515530E+01 -0.243634960E+01  0.249995360E+01
   N  0.129473233E+01 -0.246826542E+01  0.249994539E+01
   C -0.112076187E+01  0.221726034E+01  0.249998827E+01
   C  0.122723907E+01  0.207061591E+01  0.249990612E+01
   C -0.244073691E+01 -0.413268948E-01  0.249981910E+01
   C  0.227277394E+01  0.173885900E+00  0.249992722E+01
   H -0.500155814E+01  0.871138822E+01  0.249817864E+01
   H  0.522589279E+01  0.851124884E+01  0.249768914E+01
   H -0.103937186E+02 -0.111625336E+01  0.249691959E+01
   H  0.103861338E+02 -0.837402714E+00  0.249694733E+01
  Xx -0.597608130E+03  0.345084869E+03  0.249986289E+01
    11
 # iter = 15500  time[fs]=15.50000
   N -0.130998620E+01 -0.246550301E+01  0.249995355E+01
   N  0.131053264E+01 -0.249740221E+01  0.249994391E+01
   C -0.113244013E+01  0.224098032E+01  0.249999031E+01
   C  0.124059502E+01  0.209086122E+01  0.249990485E+01
   C -0.246816966E+01 -0.420430096E-01  0.249981689E+01
   C  0.229644876E+01  0.175726737E+00  0.249992799E+01
   H -0.508545889E+01  0.885641714E+01  0.249812754E+01
   H  0.531466142E+01  0.865322145E+01  0.249761809E+01
   H -0.105692959E+02 -0.114013945E+01  0.249682943E+01
   H  0.105601275E+02 -0.856140347E+00  0.249686322E+01
  Xx -0.607688898E+03  0.350905943E+03  0.249986053E+01
    11
 # iter = 15750  time[fs]=15.75000
   N -0.132481322E+01 -0.249478431E+01  0.249995333E+01
   N  0.132634238E+01 -0.252660821E+01  0.249994285E+01
   C -0.114419369E+01  0.226480052E+01  0.249999164E+01
   C  0.125404053E+01  0.211124386E+01  0.249990404E+01
   C -0.249573487E+01 -0.427545029E-01  0.249981510E+01
   C  0.232021661E+01  0.177527768E+00  0.249992778E+01
   H -0.516961383E+01  0.900184134E+01  0.249807576E+01
   H  0.540368763E+01  0.879557651E+01  0.249754655E+01
   H -0.107452952E+02 -0.116412807E+01  0.249673918E+01
   H  0.107345474E+02 -0.874977703E+00  0.249677907E+01
  Xx -0.617769666E+03  0.356727018E+03  0.249985817E+01
    11
 # iter = 16000  time[fs]=16.00000
   N -0.133964273E+01 -0.252415393E+01  0.249995333E+01
   N  0.134218574E+01 -0.255589267E+01  0.249994195E+01
   C -0.115607917E+01  0.228870232E+01  0.249999367E+01
   C  0.126751216E+01  0.213175726E+01  0.249990355E+01
   C -0.252343661E+01 -0.434596639E-01  0.249981360E+01
   C  0.234412379E+01  0.179290904E+00  0.249992863E+01
   H -0.525401770E+01  0.914764881E+01  0.249802358E+01
   H  0.549296472E+01  0.893831256E+01  0.249747491E+01
   H -0.109216964E+02 -0.118821667E+01  0.249664894E+01
   H  0.109093863E+02 -0.893911600E+00  0.249669491E+01
  Xx -0.627850434E+03  0.362548092E+03  0.249985582E+01
    11
 # iter = 16250  time[fs]=16.25000
   N -0.135446595E+01 -0.255359022E+01  0.249995344E+01
   N  0.135803416E+01 -0.258528460E+01  0.249994148E+01
   C -0.116800925E+01  0.231267542E+01  0.249999549E+01
   C  0.128103477E+01  0.215236508E+01  0.249990240E+01
   C -0.255127868E+01 -0.441482658E-01  0.249981186E+01
   C  0.236817098E+01  0.181123980E+00  0.249992881E+01
   H -0.533866152E+01  0.929383797E+01  0.249797123E+01
   H  0.558248258E+01  0.908140568E+01  0.249740342E+01
   H -0.110984972E+02 -0.121240434E+01  0.249655854E+01
   H  0.110846271E+02 -0.912936487E+00  0.249661076E+01
  Xx -0.637931202E+03  0.368369166E+03  0.249985346E+01
    11
 # iter = 16500  time[fs]=16.50000
   N -0.136929132E+01 -0.258309524E+01  0.249995355E+01
   N  0.137391020E+01 -0.261475946E+01  0.249994080E+01
   C -0.117995065E+01  0.233677394E+01  0.249999698E+01
   C  0.129456198E+01  0.217309042E+01  0.249990120E+01
   C -0.257924127E+01 -0.448357672E-01  0.249980991E+01
   C  0.239235405E+01  0.182902406E+00  0.249992932E+01
   H -0.542353710E+01  0.944039594E+01  0.249791888E+01
   H  0.567223942E+01  0.922485028E+01  0.249733207E+01
   H -0.112756951E+02 -0.123668706E+01  0.249646754E+01
   H  0.112602539E+02 -0.932051505E+00  0.249652660E+01
  Xx -0.648011970E+03  0.374190241E+03  0.249985110E+01
    11
 # iter = 16750  time[fs]=16.75000
   N -0.138414540E+01 -0.261266674E+01  0.249995353E+01
   N  0.138986927E+01 -0.264430714E+01  0.249994048E+01
   C -0.119195811E+01  0.236096680E+01  0.249999887E+01
   C  0.130813126E+01  0.219389773E+01  0.249990014E+01
   C -0.260734792E+01 -0.454789230E-01  0.249980854E+01
   C  0.241661561E+01  0.184694682E+00  0.249992941E+01
   H -0.550863874E+01  0.958730818E+01  0.249786652E+01
   H  0.576222839E+01  0.936864057E+01  0.249726003E+01
   H -0.114532759E+02 -0.126106043E+01  0.249637654E+01
   H  0.114362588E+02 -0.951255201E+00  0.249644245E+01
  Xx -0.658092739E+03  0.380011315E+03  0.249984874E+01
    11
 # iter = 17000  time[fs]=17.00000
   N -0.139906238E+01 -0.264232670E+01  0.249995323E+01
   N  0.140590818E+01 -0.267395463E+01  0.249994052E+01
   C -0.120399715E+01  0.238528297E+01  0.250000059E+01
   C  0.132178134E+01  0.221478647E+01  0.249989895E+01
   C -0.263556281E+01 -0.461632318E-01  0.249980712E+01
   C  0.244096617E+01  0.186466664E+00  0.249992953E+01
   H -0.559396315E+01  0.973456939E+01  0.249781417E+01
   H  0.585244389E+01  0.951276439E+01  0.249718712E+01
   H -0.116312267E+02 -0.128552288E+01  0.249628554E+01
   H  0.116126302E+02 -0.970544572E+00  0.249635829E+01
  Xx -0.668173507E+03  0.385832390E+03  0.249984638E+01
    11
 # iter = 17250  time[fs]=17.25000
   N -0.141404042E+01 -0.267211104E+01  0.249995324E+01
   N  0.142204440E+01 -0.270372163E+01  0.249994037E+01
   C -0.121611927E+01  0.240966825E+01  0.250000221E+01
   C  0.133548320E+01  0.223574655E+01  0.249989820E+01
   C -0.266390653E+01 -0.467787874E-01  0.249980580E+01
   C  0.246540733E+01  0.188285582E+00  0.249992953E+01
   H -0.567950256E+01  0.988216817E+01  0.249776182E+01
   H  0.594287770E+01  0.965721300E+01  0.249711413E+01
   H -0.118095363E+02 -0.131006980E+01  0.249619454E+01
   H  0.117893597E+02 -0.989916882E+00  0.249627414E+01
  Xx -0.678254275E+03  0.391653464E+03  0.249984402E+01
    11
 # iter = 17500  time[fs]=17.50000
   N -0.142908125E+01 -0.270202407E+01  0.249995319E+01
   N  0.143825123E+01 -0.273359427E+01  0.249994025E+01
   C -0.122830430E+01  0.243417115E+01  0.250000400E+01
   C  0.134924190E+01  0.225677559E+01  0.249989758E+01
   C -0.269237548E+01 -0.473997032E-01  0.249980423E+01
   C  0.248994292E+01  0.190124696E+00  0.249992967E+01
   H -0.576524921E+01  0.100300924E+02  0.249770946E+01
   H  0.603352391E+01  0.980198067E+01  0.249704114E+01
   H -0.119881968E+02 -0.133469994E+01  0.249610353E+01
   H  0.119664389E+02 -0.100937052E+01  0.249618998E+01
  Xx -0.688335043E+03  0.397474539E+03  0.249984167E+01
    11
 # iter = 17750  time[fs]=17.75000
   N -0.144419876E+01 -0.273206705E+01  0.249995307E+01
   N  0.145456961E+01 -0.276354609E+01  0.249994030E+01
   C -0.124054991E+01  0.245878015E+01  0.250000562E+01
   C  0.136305585E+01  0.227786272E+01  0.249989701E+01
   C -0.272096637E+01 -0.479889112E-01  0.249980266E+01
   C  0.251455441E+01  0.192011071E+00  0.249992963E+01
   H -0.585119666E+01  0.101783345E+02  0.249765711E+01
   H  0.612437779E+01  0.994706011E+01  0.249696816E+01
   H -0.121672004E+02 -0.135941255E+01  0.249601253E+01
   H  0.121438579E+02 -0.102890319E+01  0.249610583E+01
  Xx -0.698415811E+03  0.403295613E+03  0.249983931E+01
    11
 # iter = 18000  time[fs]=18.00000
   N -0.145939068E+01 -0.276221615E+01  0.249995274E+01
   N  0.147099410E+01 -0.279357125E+01  0.249994069E+01
   C -0.125282862E+01  0.248349663E+01  0.250000692E+01
   C  0.137695400E+01  0.229897987E+01  0.249989624E+01
   C -0.274972504E+01 -0.485821462E-01  0.249980166E+01
   C  0.253924781E+01  0.193891169E+00  0.249992943E+01
   H -0.593734279E+01  0.103268893E+02  0.249760475E+01
   H  0.621543830E+01  0.100924447E+02  0.249689517E+01
   H -0.123465373E+02 -0.138420762E+01  0.249592153E+01
   H  0.123216049E+02 -0.104851383E+01  0.249602167E+01
  Xx -0.708496579E+03  0.409116688E+03  0.249983695E+01
    11
 # iter = 18250  time[fs]=18.25000
   N -0.147465540E+01 -0.279245009E+01  0.249995238E+01
   N  0.148747728E+01 -0.282365106E+01  0.249994080E+01
   C -0.126515220E+01  0.250834441E+01  0.250000923E+01
   C  0.139095542E+01  0.232012921E+01  0.249989596E+01
   C -0.277855964E+01 -0.491754745E-01  0.249980047E+01
   C  0.256400462E+01  0.195812473E+00  0.249992915E+01
   H -0.602368063E+01  0.104757478E+02  0.249755240E+01
   H  0.630669798E+01  0.102381255E+02  0.249682218E+01
   H -0.125261989E+02 -0.140908344E+01  0.249583053E+01
   H  0.124996720E+02 -0.106819944E+01  0.249593752E+01
  Xx -0.718577347E+03  0.414937762E+03  0.249983459E+01
    11
 # iter = 18500  time[fs]=18.50000
   N -0.148999804E+01 -0.282272968E+01  0.249995192E+01
   N  0.150401105E+01 -0.285377432E+01  0.249994107E+01
   C -0.127752341E+01  0.253326484E+01  0.250001109E+01
   C  0.140501146E+01  0.234134311E+01  0.249989545E+01
   C -0.280754571E+01 -0.497604632E-01  0.249979909E+01
   C  0.258883672E+01  0.197758969E+00  0.249992914E+01
   H -0.611020481E+01  0.106249001E+02  0.249750005E+01
   H  0.639814889E+01  0.103840966E+02  0.249674920E+01
   H -0.127061717E+02 -0.143403606E+01  0.249573952E+01
   H  0.126780528E+02 -0.108795824E+01  0.249585336E+01
  Xx -0.728658115E+03  0.420758837E+03  0.249983223E+01
    11
 # iter = 18750  time[fs]=18.75000
   N -0.150539108E+01 -0.285305928E+01  0.249995181E+01
   N  0.152058736E+01 -0.288393829E+01  0.249994131E+01
   C -0.128996903E+01  0.255827172E+01  0.250001277E+01
   C  0.141913802E+01  0.236264178E+01  0.249989505E+01
   C -0.283658348E+01 -0.503462072E-01  0.249979818E+01
   C  0.261372941E+01  0.199713488E+00  0.249992957E+01
   H -0.619690930E+01  0.107743374E+02  0.249744769E+01
   H  0.648978413E+01  0.105303486E+02  0.249667621E+01
   H -0.128864494E+02 -0.145906234E+01  0.249564852E+01
   H  0.128567392E+02 -0.110778840E+01  0.249576921E+01
  Xx -0.738738884E+03  0.426579911E+03  0.249982988E+01
    11
 # iter = 19000  time[fs]=19.00000
   N -0.152080288E+01 -0.288345478E+01  0.249995169E+01
   N  0.153717335E+01 -0.291417801E+01  0.249994196E+01
   C -0.130244543E+01  0.258338179E+01  0.250001429E+01
   C  0.143331709E+01  0.238401607E+01  0.249989470E+01
   C -0.286572352E+01 -0.509358434E-01  0.249979723E+01
   C  0.263872487E+01  0.201664180E+00  0.249993029E+01
   H -0.628379061E+01  0.109240548E+02  0.249739534E+01
   H  0.658160168E+01  0.106768752E+02  0.249660323E+01
   H -0.130670251E+02 -0.148416130E+01  0.249555752E+01
   H  0.130357215E+02 -0.112768896E+01  0.249568505E+01
  Xx -0.748819652E+03  0.432400986E+03  0.249982752E+01
    11
 # iter = 19250  time[fs]=19.25000
   N -0.153621698E+01 -0.291393647E+01  0.249995147E+01
   N  0.155377458E+01 -0.294451269E+01  0.249994246E+01
   C -0.131497721E+01  0.260857678E+01  0.250001529E+01
   C  0.144753852E+01  0.240547993E+01  0.249989377E+01
   C -0.289495965E+01 -0.514994941E-01  0.249979610E+01
   C  0.266379835E+01  0.203596989E+00  0.249993056E+01
   H -0.637084480E+01  0.110740461E+02  0.249734299E+01
   H  0.667359911E+01  0.108236711E+02  0.249653024E+01
   H -0.132478941E+02 -0.150933206E+01  0.249546651E+01
   H  0.132149905E+02 -0.114765933E+01  0.249560090E+01
  Xx -0.758900420E+03  0.438222060E+03  0.249982516E+01
    11
 # iter = 19500  time[fs]=19.50000
   N -0.155162372E+01 -0.294452998E+01  0.249995120E+01
   N  0.157035659E+01 -0.297493992E+01  0.249994292E+01
   C -0.132751963E+01  0.263386568E+01  0.250001645E+01
   C  0.146182739E+01  0.242702359E+01  0.249989315E+01
   C -0.292428095E+01 -0.520996809E-01  0.249979512E+01
   C  0.268895725E+01  0.205516748E+00  0.249993129E+01
   H -0.645806814E+01  0.112243068E+02  0.249729063E+01
   H  0.676577358E+01  0.109707299E+02  0.249645725E+01
   H -0.134290487E+02 -0.153457340E+01  0.249537551E+01
   H  0.133945372E+02 -0.116769790E+01  0.249551674E+01
  Xx -0.768981188E+03  0.444043135E+03  0.249982280E+01
    11
 # iter = 19750  time[fs]=19.75000
   N -0.156701928E+01 -0.297524081E+01  0.249995146E+01
   N  0.158693113E+01 -0.300544255E+01  0.249994349E+01
   C -0.134010405E+01  0.265925745E+01  0.250001766E+01
   C  0.147614154E+01  0.244861903E+01  0.249989265E+01
   C -0.295371265E+01 -0.526518958E-01  0.249979423E+01
   C  0.271421015E+01  0.207408912E+00  0.249993156E+01
   H -0.654545536E+01  0.113748274E+02  0.249723828E+01
   H  0.685812003E+01  0.111180468E+02  0.249638427E+01
   H -0.136104830E+02 -0.155988246E+01  0.249528451E+01
   H  0.135743544E+02 -0.118780299E+01  0.249543259E+01
  Xx -0.779061956E+03  0.449864209E+03  0.249982044E+01
    11
 # iter = 20000  time[fs]=20.00000
   N -0.158240592E+01 -0.300604901E+01  0.249995153E+01
   N  0.160350096E+01 -0.303599483E+01  0.249994442E+01
   C -0.135268316E+01  0.268474444E+01  0.250001873E+01
   C  0.149049662E+01  0.247033152E+01  0.249989162E+01
   C -0.298323965E+01 -0.532389387E-01  0.249979397E+01
   C  0.273950761E+01  0.209308006E+00  0.249993166E+01
   H -0.663300077E+01  0.115256012E+02  0.249718593E+01
   H  0.695063142E+01  0.112656126E+02  0.249631128E+01
   H -0.137921889E+02 -0.158525716E+01  0.249519351E+01
   H  0.137544373E+02 -0.120797180E+01  0.249534843E+01
  Xx -0.789142724E+03  0.455685284E+03  0.249981809E+01
    11
 # iter = 20250  time[fs]=20.25000
   N -0.159778353E+01 -0.303691945E+01  0.249995161E+01
   N  0.162009241E+01 -0.306657743E+01  0.249994565E+01
   C -0.136529513E+01  0.271034688E+01  0.250002048E+01
   C  0.150489694E+01  0.249209754E+01  0.249989053E+01
   C -0.301285087E+01 -0.538084992E-01  0.249979343E+01
   C  0.276490414E+01  0.211187899E+00  0.249993218E+01
   H -0.672070244E+01  0.116766238E+02  0.249713357E+01
   H  0.704330565E+01  0.114134222E+02  0.249623830E+01
   H -0.139741595E+02 -0.161069642E+01  0.249510250E+01
   H  0.139347778E+02 -0.122820341E+01  0.249526428E+01
  Xx -0.799223492E+03  0.461506358E+03  0.249981573E+01
    11
 # iter = 20500  time[fs]=20.50000
   N -0.161315603E+01 -0.306782496E+01  0.249995154E+01
   N  0.163670192E+01 -0.309717918E+01  0.249994673E+01
   C -0.137791826E+01  0.273604656E+01  0.250002151E+01
   C  0.151933635E+01  0.251395161E+01  0.249988963E+01
   C -0.304257620E+01 -0.543944719E-01  0.249979272E+01
   C  0.279034817E+01  0.213062533E+00  0.249993211E+01
   H -0.680855805E+01  0.118278902E+02  0.249708122E+01
   H  0.713613911E+01  0.115614696E+02  0.249616531E+01
   H -0.141563860E+02 -0.163619947E+01  0.249501150E+01
   H  0.141153707E+02 -0.124849682E+01  0.249518012E+01
  Xx -0.809304261E+03  0.467327433E+03  0.249981337E+01
    11
 # iter = 20750  time[fs]=20.75000
   N -0.162853144E+01 -0.309876717E+01  0.249995154E+01
   N  0.165335554E+01 -0.312781018E+01  0.249994783E+01
   C -0.139056508E+01  0.276184224E+01  0.250002286E+01
   C  0.153379743E+01  0.253587390E+01  0.249988843E+01
   C -0.307235310E+01 -0.549842429E-01  0.249979244E+01
   C  0.281587424E+01  0.214898618E+00  0.249993166E+01
   H -0.689656443E+01  0.119793924E+02  0.249702886E+01
   H  0.722912809E+01  0.117097517E+02  0.249609232E+01
   H -0.143388614E+02 -0.166176461E+01  0.249492050E+01
   H  0.142962113E+02 -0.126885136E+01  0.249509597E+01
  Xx -0.819385029E+03  0.473148507E+03  0.249981101E+01
    11
 # iter = 21000  time[fs]=21.00000
   N -0.164392018E+01 -0.312975386E+01  0.249995142E+01
   N  0.167006455E+01 -0.315849034E+01  0.249994914E+01
   C -0.140323825E+01  0.278772525E+01  0.250002497E+01
   C  0.154826344E+01  0.255790145E+01  0.249988745E+01
   C -0.310225233E+01 -0.555626717E-01  0.249979182E+01
   C  0.284147934E+01  0.216694701E+00  0.249993193E+01
   H -0.698471838E+01  0.121311238E+02  0.249697651E+01
   H  0.732226911E+01  0.118582642E+02  0.249601934E+01
   H -0.145215771E+02 -0.168739024E+01  0.249482949E+01
   H  0.144772960E+02 -0.128926601E+01  0.249501181E+01
  Xx -0.829465797E+03  0.478969582E+03  0.249980865E+01
    11
 # iter = 21250  time[fs]=21.25000
   N -0.165934061E+01 -0.316081835E+01  0.249995167E+01
   N  0.168684281E+01 -0.318925774E+01  0.249995062E+01
   C -0.141595323E+01  0.281368459E+01  0.250002684E+01
   C  0.156269633E+01  0.258001917E+01  0.249988624E+01
   C -0.313219768E+01 -0.561415127E-01  0.249979156E+01
   C  0.286717366E+01  0.218460928E+00  0.249993180E+01
   H -0.707301629E+01  0.122830780E+02  0.249692416E+01
   H  0.741555856E+01  0.120070030E+02  0.249594635E+01
   H -0.147045271E+02 -0.171307496E+01  0.249473849E+01
   H  0.146586207E+02 -0.130973962E+01  0.249492766E+01
  Xx -0.839546565E+03  0.484790656E+03  0.249980629E+01
    11
 # iter = 21500  time[fs]=21.50000
   N -0.167481245E+01 -0.319198652E+01  0.249995195E+01
   N  0.170369863E+01 -0.322011935E+01  0.249995211E+01
   C -0.142868505E+01  0.283970208E+01  0.250002877E+01
   C  0.157715170E+01  0.260222516E+01  0.249988495E+01
   C -0.316224357E+01 -0.567439118E-01  0.249979078E+01
   C  0.289295896E+01  0.220178499E+00  0.249993187E+01
   H -0.716145568E+01  0.124352518E+02  0.249687180E+01
   H  0.750899403E+01  0.121559625E+02  0.249587337E+01
   H -0.148877055E+02 -0.173881794E+01  0.249464749E+01
   H  0.148401787E+02 -0.133027070E+01  0.249484350E+01
  Xx -0.849627333E+03  0.490611730E+03  0.249980394E+01
    11
 # iter = 21750  time[fs]=21.75000
   N -0.169034499E+01 -0.322325382E+01  0.249995215E+01
   N  0.172061977E+01 -0.325106421E+01  0.249995398E+01
   C -0.144146151E+01  0.286578589E+01  0.250003126E+01
   C  0.159159166E+01  0.262451906E+01  0.249988332E+01
   C -0.319237189E+01 -0.573021965E-01  0.249979023E+01
   C  0.291883609E+01  0.221877759E+00  0.249993220E+01
   H -0.725003203E+01  0.125876383E+02  0.249681945E+01
   H  0.760257113E+01  0.123051366E+02  0.249580038E+01
   H -0.150711078E+02 -0.176461712E+01  0.249455649E+01
   H  0.150219641E+02 -0.135085722E+01  0.249475935E+01
  Xx -0.859708101E+03  0.496432805E+03  0.249980158E+01
    11
 # iter = 22000  time[fs]=22.00000
   N -0.170593732E+01 -0.325460970E+01  0.249995229E+01
   N  0.173760014E+01 -0.328207146E+01  0.249995598E+01
   C -0.145425847E+01  0.289192612E+01  0.250003369E+01
   C  0.160605789E+01  0.264687450E+01  0.249988207E+01
   C -0.322257763E+01 -0.579168855E-01  0.249978969E+01
   C  0.294479881E+01  0.223540203E+00  0.249993251E+01
   H -0.733874212E+01  0.127402340E+02  0.249676710E+01
   H  0.769628670E+01  0.124545182E+02  0.249572739E+01
   H -0.152547308E+02 -0.179047173E+01  0.249446548E+01
   H  0.152039703E+02 -0.137149733E+01  0.249467519E+01
  Xx -0.869788869E+03  0.502253879E+03  0.249979922E+01
    11
 # iter = 22250  time[fs]=22.25000
   N -0.172158770E+01 -0.328602374E+01  0.249995265E+01
   N  0.175462721E+01 -0.331311282E+01  0.249995824E+01
   C -0.146707789E+01  0.291814229E+01  0.250003624E+01
   C  0.162054846E+01  0.266929285E+01  0.249988030E+01
   C -0.325288040E+01 -0.584801098E-01  0.249978866E+01
   C  0.297084005E+01  0.225199557E+00  0.249993261E+01
   H -0.742758206E+01  0.128930351E+02  0.249671474E+01
   H  0.779013665E+01  0.126041012E+02  0.249565441E+01
   H -0.154385698E+02 -0.181638009E+01  0.249437448E+01
   H  0.153861930E+02 -0.139218880E+01  0.249459104E+01
  Xx -0.879869637E+03  0.508074954E+03  0.249979686E+01
    11
 # iter = 22500  time[fs]=22.50000
   N -0.173727752E+01 -0.331747932E+01  0.249995331E+01
   N  0.177167130E+01 -0.334417763E+01  0.249996051E+01
   C -0.147994422E+01  0.294440652E+01  0.250003833E+01
   C  0.163504550E+01  0.269177109E+01  0.249987861E+01
   C -0.328325080E+01 -0.590979154E-01  0.249978784E+01
   C  0.299696686E+01  0.226832678E+00  0.249993285E+01
   H -0.751655007E+01  0.130460385E+02  0.249666239E+01
   H  0.788411915E+01  0.127538823E+02  0.249558142E+01
   H -0.156226195E+02 -0.184234190E+01  0.249428348E+01
   H  0.155686270E+02 -0.141293090E+01  0.249450688E+01
  Xx -0.889950406E+03  0.513896028E+03  0.249979450E+01
    11
 # iter = 22750  time[fs]=22.75000
   N -0.175299446E+01 -0.334897025E+01  0.249995400E+01
   N  0.178871147E+01 -0.337528821E+01  0.249996284E+01
   C -0.149280536E+01  0.297073145E+01  0.250004068E+01
   C  0.164959241E+01  0.271430026E+01  0.249987741E+01
   C -0.331369533E+01 -0.596885359E-01  0.249978652E+01
   C  0.302314858E+01  0.228429160E+00  0.249993278E+01
   H -0.760564392E+01  0.131992403E+02  0.249661003E+01
   H  0.797823236E+01  0.129038574E+02  0.249550844E+01
   H -0.158068765E+02 -0.186835661E+01  0.249419248E+01
   H  0.157512670E+02 -0.143372320E+01  0.249442273E+01
  Xx -0.900031174E+03  0.519717103E+03  0.249979215E+01
    11
 # iter = 23000  time[fs]=23.00000
   N -0.176872190E+01 -0.338050550E+01  0.249995460E+01
   N  0.180574459E+01 -0.340646762E+01  0.249996563E+01
   C -0.150573138E+01  0.299711679E+01  0.250004329E+01
   C  0.166415510E+01  0.273687792E+01  0.249987560E+01
   C -0.334423917E+01 -0.603073640E-01  0.249978589E+01
   C  0.304939418E+01  0.229998497E+00  0.249993285E+01
   H -0.769486158E+01  0.133526358E+02  0.249655768E+01
   H  0.807247434E+01  0.130540230E+02  0.249543545E+01
   H -0.159913348E+02 -0.189442346E+01  0.249410147E+01
   H  0.159341077E+02 -0.145456569E+01  0.249433857E+01
  Xx -0.910111942E+03  0.525538177E+03  0.249978979E+01
    11
 # iter = 23250  time[fs]=23.25000
   N -0.178444828E+01 -0.341211282E+01  0.249995519E+01
   N  0.182275787E+01 -0.343772849E+01  0.249996837E+01
   C -0.151866256E+01  0.302355227E+01  0.250004594E+01
   C  0.167877881E+01  0.275950341E+01  0.249987418E+01
   C -0.337482267E+01 -0.609457211E-01  0.249978491E+01
   C  0.307569147E+01  0.231539888E+00  0.249993263E+01
   H -0.778420099E+01  0.135062220E+02  0.249650533E+01
   H  0.816684171E+01  0.132043751E+02  0.249536246E+01
   H -0.161759909E+02 -0.192054202E+01  0.249401047E+01
   H  0.161171439E+02 -0.147545718E+01  0.249425442E+01
  Xx -0.920192710E+03  0.531359252E+03  0.249978743E+01
    11
 # iter = 23500  time[fs]=23.50000
   N -0.180015965E+01 -0.344381411E+01  0.249995620E+01
   N  0.183973720E+01 -0.346908921E+01  0.249997091E+01
   C -0.153163427E+01  0.305004285E+01  0.250004885E+01
   C  0.169345408E+01  0.278215813E+01  0.249987294E+01
   C -0.340552754E+01 -0.616134317E-01  0.249978367E+01
   C  0.310203065E+01  0.233063858E+00  0.249993200E+01
   H -0.787366010E+01  0.136599960E+02  0.249645297E+01
   H  0.826133327E+01  0.133549089E+02  0.249528948E+01
   H -0.163608407E+02 -0.194671130E+01  0.249391947E+01
   H  0.163003714E+02 -0.149639665E+01  0.249417026E+01
  Xx -0.930273478E+03  0.537180326E+03  0.249978507E+01
    11
 # iter = 23750  time[fs]=23.75000
   N -0.181583497E+01 -0.347561431E+01  0.249995732E+01
   N  0.185670026E+01 -0.350053843E+01  0.249997361E+01
   C -0.154462818E+01  0.307659616E+01  0.250005114E+01
   C  0.170818281E+01  0.280485863E+01  0.249987140E+01
   C -0.343628369E+01 -0.622933458E-01  0.249978283E+01
   C  0.312842330E+01  0.234566597E+00  0.249993148E+01
   H -0.796323641E+01  0.138139544E+02  0.249640062E+01
   H  0.835594594E+01  0.135056208E+02  0.249521649E+01
   H -0.165458795E+02 -0.197293030E+01  0.249382846E+01
   H  0.164837854E+02 -0.151738300E+01  0.249408611E+01
  Xx -0.940354246E+03  0.543001401E+03  0.249978271E+01
    11
 # iter = 24000  time[fs]=24.00000
   N -0.183147319E+01 -0.350750241E+01  0.249995813E+01
   N  0.187366111E+01 -0.353204643E+01  0.249997639E+01
   C -0.155765267E+01  0.310319912E+01  0.250005346E+01
   C  0.172298207E+01  0.282756496E+01  0.249986985E+01
   C -0.346713147E+01 -0.630176654E-01  0.249978150E+01
   C  0.315487172E+01  0.236038759E+00  0.249993103E+01
   H -0.805292755E+01  0.139680932E+02  0.249634827E+01
   H  0.845067792E+01  0.136565086E+02  0.249514351E+01
   H -0.167311041E+02 -0.199919785E+01  0.249373746E+01
   H  0.166673808E+02 -0.153841580E+01  0.249400195E+01
  Xx -0.950435014E+03  0.548822475E+03  0.249978036E+01
    11
 # iter = 24250  time[fs]=24.25000
   N -0.184708541E+01 -0.353944190E+01  0.249995892E+01
   N  0.189063640E+01 -0.356359012E+01  0.249997919E+01
   C -0.157071307E+01  0.312985841E+01  0.250005638E+01
   C  0.173781948E+01  0.285031078E+01  0.249986849E+01
   C -0.349807036E+01 -0.637496095E-01  0.249978052E+01
   C  0.318136803E+01  0.237497306E+00  0.249993030E+01
   H -0.814273000E+01  0.141224064E+02  0.249629591E+01
   H  0.854552588E+01  0.138075690E+02  0.249507052E+01
   H -0.169165080E+02 -0.202551246E+01  0.249364646E+01
   H  0.168511538E+02 -0.155949417E+01  0.249391780E+01
  Xx -0.960515783E+03  0.554643550E+03  0.249977800E+01
    11
 # iter = 24500  time[fs]=24.50000
   N -0.186268599E+01 -0.357141058E+01  0.249995979E+01
   N  0.190765227E+01 -0.359515600E+01  0.249998212E+01
   C -0.158380729E+01  0.315657989E+01  0.250005880E+01
   C  0.175270469E+01  0.287307894E+01  0.249986691E+01
   C -0.352905409E+01 -0.645345810E-01  0.249977963E+01
   C  0.320794183E+01  0.238928357E+00  0.249992986E+01
   H -0.823264261E+01  0.142768910E+02  0.249624356E+01
   H  0.864048793E+01  0.139587987E+02  0.249499753E+01
   H -0.171020880E+02 -0.205187338E+01  0.249355546E+01
   H  0.170351045E+02 -0.158061753E+01  0.249383365E+01
  Xx -0.970596551E+03  0.560464624E+03  0.249977564E+01
    11
 # iter = 24750  time[fs]=24.75000
   N -0.187828532E+01 -0.360339556E+01  0.249996066E+01
   N  0.192472125E+01 -0.362675390E+01  0.249998508E+01
   C -0.159691407E+01  0.318334580E+01  0.250006124E+01
   C  0.176762132E+01  0.289590140E+01  0.249986547E+01
   C -0.356012642E+01 -0.653278925E-01  0.249977847E+01
   C  0.323456842E+01  0.240346293E+00  0.249992926E+01
   H -0.832266211E+01  0.144315428E+02  0.249619121E+01
   H  0.873556110E+01  0.141101940E+02  0.249492455E+01
   H -0.172878376E+02 -0.207827985E+01  0.249346445E+01
   H  0.172192283E+02 -0.160178470E+01  0.249374949E+01
  Xx -0.980677319E+03  0.566285699E+03  0.249977328E+01
    11
 # iter = 25000  time[fs]=25.00000
   N -0.189389947E+01 -0.363540610E+01  0.249996109E+01
   N  0.194185702E+01 -0.365841356E+01  0.249998801E+01
   C -0.161006587E+01  0.321018186E+01  0.250006380E+01
   C  0.178256979E+01  0.291873971E+01  0.249986346E+01
   C -0.359125777E+01 -0.661566687E-01  0.249977820E+01
   C  0.326126775E+01  0.241741112E+00  0.249992883E+01
   H -0.841278667E+01  0.145863576E+02  0.249613885E+01
   H  0.883074356E+01  0.142617512E+02  0.249485156E+01
   H -0.174737560E+02 -0.210473070E+01  0.249337345E+01
   H  0.174035208E+02 -0.162299471E+01  0.249366534E+01
  Xx -0.990758087E+03  0.572106773E+03  0.249977092E+01
    11
 # iter = 25250  time[fs]=25.25000
   N -0.190954731E+01 -0.366747480E+01  0.249996181E+01
   N  0.195906381E+01 -0.369015786E+01  0.249999108E+01
   C -0.162323983E+01  0.323705648E+01  0.250006604E+01
   C  0.179755940E+01  0.294162956E+01  0.249986194E+01
   C -0.362244093E+01 -0.670144467E-01  0.249977754E+01
   C  0.328801481E+01  0.243115299E+00  0.249992862E+01
   H -0.850301343E+01  0.147413324E+02  0.249608650E+01
   H  0.892603262E+01  0.144134660E+02  0.249477858E+01
   H -0.176598422E+02 -0.213122471E+01  0.249328245E+01
   H  0.175879782E+02 -0.164424652E+01  0.249358118E+01
  Xx -0.100083886E+04  0.577927848E+03  0.249976856E+01
    11
 # iter = 25500  time[fs]=25.50000
   N -0.192524144E+01 -0.369963428E+01  0.249996297E+01
   N  0.197633862E+01 -0.372198306E+01  0.249999407E+01
   C -0.163645871E+01  0.326399143E+01  0.250006854E+01
   C  0.181259076E+01  0.296453747E+01  0.249986026E+01
   C -0.365371434E+01 -0.678865286E-01  0.249977678E+01
   C  0.331481596E+01  0.244481695E+00  0.249992836E+01
   H -0.859334140E+01  0.148964652E+02  0.249603414E+01
   H  0.902142692E+01  0.145653355E+02  0.249470559E+01
   H -0.178460896E+02 -0.215776101E+01  0.249319145E+01
   H  0.177725954E+02 -0.166553935E+01  0.249349703E+01
  Xx -0.101091962E+04  0.583748922E+03  0.249976621E+01
    11
 # iter = 25750  time[fs]=25.75000
   N -0.194099351E+01 -0.373189196E+01  0.249996364E+01
   N  0.199365409E+01 -0.375387797E+01  0.249999696E+01
   C -0.164970713E+01  0.329097804E+01  0.250007097E+01
   C  0.182763505E+01  0.298749106E+01  0.249985837E+01
   C -0.368503418E+01 -0.687914076E-01  0.249977670E+01
   C  0.334167602E+01  0.245824068E+00  0.249992848E+01
   H -0.868376733E+01  0.150517526E+02  0.249598179E+01
   H  0.911692347E+01  0.147173562E+02  0.249463260E+01
   H -0.180324969E+02 -0.218433918E+01  0.249310044E+01
   H  0.179573723E+02 -0.168687252E+01  0.249341287E+01
  Xx -0.102100039E+04  0.589569996E+03  0.249976385E+01
    11
 # iter = 26000  time[fs]=26.00000
   N -0.195680232E+01 -0.376421687E+01  0.249996429E+01
   N  0.201099079E+01 -0.378582118E+01  0.250000002E+01
   C -0.166298560E+01  0.331800146E+01  0.250007309E+01
   C  0.184271811E+01  0.301046573E+01  0.249985672E+01
   C -0.371644095E+01 -0.696998662E-01  0.249977568E+01
   C  0.336858276E+01  0.247152960E+00  0.249992857E+01
   H -0.877429010E+01  0.152071912E+02  0.249592944E+01
   H  0.921252112E+01  0.148695251E+02  0.249455962E+01
   H -0.182190637E+02 -0.221095818E+01  0.249300944E+01
   H  0.181423025E+02 -0.170824509E+01  0.249332872E+01
  Xx -0.103108116E+04  0.595391071E+03  0.249976149E+01
    11
 # iter = 26250  time[fs]=26.25000
   N -0.197265820E+01 -0.379657950E+01  0.249996530E+01
   N  0.202833078E+01 -0.381778244E+01  0.250000315E+01
   C -0.167630273E+01  0.334507556E+01  0.250007481E+01
   C  0.185780984E+01  0.303346979E+01  0.249985442E+01
   C -0.374792915E+01 -0.706357322E-01  0.249977557E+01
   C  0.339554789E+01  0.248467868E+00  0.249992820E+01
   H -0.886490643E+01  0.153627780E+02  0.249587708E+01
   H  0.930821669E+01  0.150218392E+02  0.249448663E+01
   H -0.184057838E+02 -0.223761716E+01  0.249291844E+01
   H  0.183273838E+02 -0.172965635E+01  0.249324456E+01
  Xx -0.104116193E+04  0.601212145E+03  0.249975913E+01
    11
 # iter = 26500  time[fs]=26.50000
   N -0.198855163E+01 -0.382896047E+01  0.249996608E+01
   N  0.204565051E+01 -0.384975452E+01  0.250000610E+01
   C -0.168964764E+01  0.337219894E+01  0.250007685E+01
   C  0.187293890E+01  0.305649936E+01  0.249985205E+01
   C -0.377945865E+01 -0.715787315E-01  0.249977583E+01
   C  0.342256839E+01  0.249760984E+00  0.249992834E+01
   H -0.895561603E+01  0.155185108E+02  0.249582473E+01
   H  0.940400943E+01  0.151742955E+02  0.249441364E+01
   H -0.185926548E+02 -0.226431525E+01  0.249282743E+01
   H  0.185126133E+02 -0.175110545E+01  0.249316041E+01
  Xx -0.105124270E+04  0.607033220E+03  0.249975677E+01
    11
 # iter = 26750  time[fs]=26.75000
   N -0.200446713E+01 -0.386136027E+01  0.249996676E+01
   N  0.206293535E+01 -0.388174542E+01  0.250000910E+01
   C -0.170302648E+01  0.339935140E+01  0.250007887E+01
   C  0.188810012E+01  0.307955212E+01  0.249985093E+01
   C -0.381108245E+01 -0.725463521E-01  0.249977532E+01
   C  0.344964607E+01  0.251027247E+00  0.249992868E+01
   H -0.904641722E+01  0.156743862E+02  0.249577238E+01
   H  0.949989601E+01  0.153268916E+02  0.249434066E+01
   H -0.187796768E+02 -0.229105174E+01  0.249273643E+01
   H  0.186979851E+02 -0.177259152E+01  0.249307625E+01
  Xx -0.106132346E+04  0.612854294E+03  0.249975442E+01
    11
 # iter = 27000  time[fs]=27.00000
   N -0.202038530E+01 -0.389380206E+01  0.249996760E+01
   N  0.208017686E+01 -0.391377693E+01  0.250001215E+01
   C -0.171644959E+01  0.342655917E+01  0.250008049E+01
   C  0.190328321E+01  0.310262123E+01  0.249984885E+01
   C -0.384272872E+01 -0.735063719E-01  0.249977561E+01
   C  0.347678141E+01  0.252278314E+00  0.249992872E+01
   H -0.913730726E+01  0.158304013E+02  0.249572002E+01
   H  0.959587526E+01  0.154796248E+02  0.249426767E+01
   H -0.189668438E+02 -0.231782552E+01  0.249264543E+01
   H  0.188834991E+02 -0.179411378E+01  0.249299210E+01
  Xx -0.107140423E+04  0.618675369E+03  0.249975206E+01
    11
 # iter = 27250  time[fs]=27.25000
   N -0.203629337E+01 -0.392630995E+01  0.249996850E+01
   N  0.209738194E+01 -0.394587465E+01  0.250001506E+01
   C -0.172989080E+01  0.345380513E+01  0.250008239E+01
   C  0.191851492E+01  0.312572332E+01  0.249984682E+01
   C -0.387443951E+01 -0.744913467E-01  0.249977522E+01
   C  0.350397215E+01  0.253490343E+00  0.249992870E+01
   H -0.922828464E+01  0.159865531E+02  0.249566767E+01
   H  0.969194384E+01  0.156324918E+02  0.249419469E+01
   H -0.191541530E+02 -0.234463572E+01  0.249255443E+01
   H  0.190691551E+02 -0.181567143E+01  0.249290794E+01
  Xx -0.108148500E+04  0.624496443E+03  0.249974970E+01
    11
 # iter = 27500  time[fs]=27.50000
   N -0.205218339E+01 -0.395889812E+01  0.249996939E+01
   N  0.211457141E+01 -0.397804611E+01  0.250001791E+01
   C -0.174337087E+01  0.348109148E+01  0.250008393E+01
   C  0.193375711E+01  0.314885602E+01  0.249984529E+01
   C -0.390621380E+01 -0.754873752E-01  0.249977487E+01
   C  0.353120758E+01  0.254708187E+00  0.249992879E+01
   H -0.931934647E+01  0.161428384E+02  0.249561532E+01
   H  0.978810125E+01  0.157854904E+02  0.249412170E+01
   H -0.193416020E+02 -0.237148153E+01  0.249246342E+01
   H  0.192549522E+02 -0.183726369E+01  0.249282379E+01
  Xx -0.109156577E+04  0.630317518E+03  0.249974734E+01
    11
 # iter = 27750  time[fs]=27.75000
   N -0.206804873E+01 -0.399156239E+01  0.249997037E+01
   N  0.213176008E+01 -0.401027346E+01  0.250002076E+01
   C -0.175687574E+01  0.350843180E+01  0.250008553E+01
   C  0.194904777E+01  0.317201646E+01  0.249984309E+01
   C -0.393802816E+01 -0.764926526E-01  0.249977524E+01
   C  0.355848842E+01  0.255890135E+00  0.249992903E+01
   H -0.941049268E+01  0.162992569E+02  0.249556296E+01
   H  0.988434554E+01  0.159386178E+02  0.249404871E+01
   H -0.195291845E+02 -0.239836248E+01  0.249237242E+01
   H  0.194408838E+02 -0.185888981E+01  0.249273963E+01
  Xx -0.110164654E+04  0.636138592E+03  0.249974498E+01
    11
 # iter = 28000  time[fs]=28.00000
   N -0.208388071E+01 -0.402428141E+01  0.249997137E+01
   N  0.214896743E+01 -0.404252900E+01  0.250002351E+01
   C -0.177041649E+01  0.353580169E+01  0.250008717E+01
   C  0.196437589E+01  0.319521655E+01  0.249984178E+01
   C -0.396993250E+01 -0.775193330E-01  0.249977486E+01
   C  0.358580296E+01  0.257067066E+00  0.249992929E+01
   H -0.950172164E+01  0.164558038E+02  0.249551061E+01
   H  0.998067422E+01  0.160918723E+02  0.249397573E+01
   H -0.197169003E+02 -0.242527785E+01  0.249228142E+01
   H  0.196269485E+02 -0.188054922E+01  0.249265548E+01
  Xx -0.111172730E+04  0.641959667E+03  0.249974263E+01
    11
 # iter = 28250  time[fs]=28.25000
   N -0.209967421E+01 -0.405702654E+01  0.249997231E+01
   N  0.216622661E+01 -0.407479399E+01  0.250002628E+01
   C -0.178397831E+01  0.356321778E+01  0.250008887E+01
   C  0.197974376E+01  0.321844235E+01  0.249984044E+01
   C -0.400187250E+01 -0.785454487E-01  0.249977531E+01
   C  0.361316447E+01  0.258208648E+00  0.249992902E+01
   H -0.959303058E+01  0.166124751E+02  0.249545825E+01
   H  0.100770873E+02  0.162452511E+02  0.249390274E+01
   H -0.199047494E+02 -0.245222720E+01  0.249219041E+01
   H  0.198131462E+02 -0.190224168E+01  0.249257132E+01
  Xx -0.112180807E+04  0.647780741E+03  0.249974027E+01
    11
 # iter = 28500  time[fs]=28.50000
   N -0.211544537E+01 -0.408978019E+01  0.249997342E+01
   N  0.218354979E+01 -0.410706688E+01  0.250002883E+01
   C -0.179756300E+01  0.359067350E+01  0.250009097E+01
   C  0.199514718E+01  0.324170533E+01  0.249983841E+01
   C -0.403386332E+01 -0.795959798E-01  0.249977569E+01
   C  0.364055948E+01  0.259332844E+00  0.249992874E+01
   H -0.968441945E+01  0.167692707E+02  0.249540590E+01
   H  0.101735836E+02  0.163987543E+02  0.249382976E+01
   H -0.200927299E+02 -0.247920993E+01  0.249209941E+01
   H  0.199994708E+02 -0.192396668E+01  0.249248717E+01
  Xx -0.113188884E+04  0.653601816E+03  0.249973791E+01
    11
 # iter = 28750  time[fs]=28.75000
   N -0.213122232E+01 -0.412255146E+01  0.249997433E+01
   N  0.220093896E+01 -0.413936283E+01  0.250003144E+01
   C -0.181116485E+01  0.361815351E+01  0.250009228E+01
   C  0.201058626E+01  0.326498308E+01  0.249983726E+01
   C -0.406591883E+01 -0.806527344E-01  0.249977557E+01
   C  0.366799638E+01  0.260432372E+00  0.249992863E+01
   H -0.977588769E+01  0.169261906E+02  0.249535355E+01
   H  0.102701601E+02  0.165523791E+02  0.249375677E+01
   H -0.202808354E+02 -0.250622595E+01  0.249200841E+01
   H  0.201859198E+02 -0.194572375E+01  0.249240301E+01
  Xx -0.114196961E+04  0.659422890E+03  0.249973555E+01
    11
 # iter = 29000  time[fs]=29.00000
   N -0.214702449E+01 -0.415536823E+01  0.249997522E+01
   N  0.221839860E+01 -0.417170006E+01  0.250003417E+01
   C -0.182479996E+01  0.364568522E+01  0.250009374E+01
   C  0.202605252E+01  0.328829294E+01  0.249983522E+01
   C -0.409799496E+01 -0.817248286E-01  0.249977635E+01
   C  0.369548055E+01  0.261521547E+00  0.249992834E+01
   H -0.986743196E+01  0.170832335E+02  0.249530119E+01
   H  0.103668166E+02  0.167061195E+02  0.249368378E+01
   H -0.204690653E+02 -0.253327455E+01  0.249191741E+01
   H  0.203724931E+02 -0.196751216E+01  0.249231886E+01
  Xx -0.115205038E+04  0.665243965E+03  0.249973319E+01
    11
 # iter = 29250  time[fs]=29.25000
   N -0.216285760E+01 -0.418825281E+01  0.249997615E+01
   N  0.223590825E+01 -0.420410283E+01  0.250003679E+01
   C -0.183844665E+01  0.367325176E+01  0.250009526E+01
   C  0.204156028E+01  0.331162010E+01  0.249983338E+01
   C -0.413014055E+01 -0.828315935E-01  0.249977638E+01
   C  0.372301161E+01  0.262585866E+00  0.249992823E+01
   H -0.995905173E+01  0.172403929E+02  0.249524884E+01
   H  0.104635519E+02  0.168599754E+02  0.249361080E+01
   H -0.206574195E+02 -0.256035523E+01  0.249182640E+01
   H  0.205591908E+02 -0.198933137E+01  0.249223470E+01
  Xx -0.116213115E+04  0.671065039E+03  0.249973084E+01
    11
 # iter = 29500  time[fs]=29.50000
   N -0.217873154E+01 -0.422121200E+01  0.249997717E+01
   N  0.225345022E+01 -0.423657916E+01  0.250003913E+01
   C -0.185212517E+01  0.370085427E+01  0.250009651E+01
   C  0.205708928E+01  0.333497038E+01  0.249983237E+01
   C -0.416232617E+01 -0.839243271E-01  0.249977694E+01
   C  0.375057843E+01  0.263643414E+00  0.249992812E+01
   H -0.100507469E+02  0.173976677E+02  0.249519649E+01
   H  0.105603629E+02  0.170139467E+02  0.249353781E+01
   H -0.208458943E+02 -0.258746718E+01  0.249173540E+01
   H  0.207460105E+02 -0.201118077E+01  0.249215055E+01
  Xx -0.117221191E+04  0.676886114E+03  0.249972848E+01
    11
 # iter = 29750  time[fs]=29.75000
   N -0.219466204E+01 -0.425423396E+01  0.249997834E+01
   N  0.227100009E+01 -0.426910388E+01  0.250004136E+01
   C -0.186583046E+01  0.372851075E+01  0.250009806E+01
   C  0.207265525E+01  0.335834383E+01  0.249983051E+01
   C -0.419456038E+01 -0.850491684E-01  0.249977763E+01
   C  0.377819574E+01  0.264659069E+00  0.249992797E+01
   H -0.101425143E+02  0.175550580E+02  0.249514413E+01
   H  0.106572494E+02  0.171680327E+02  0.249346483E+01
   H -0.210344845E+02 -0.261460975E+01  0.249164440E+01
   H  0.209329460E+02 -0.203306001E+01  0.249206639E+01
  Xx -0.118229268E+04  0.682707188E+03  0.249972612E+01
    11
 # iter = 30000  time[fs]=30.00000
   N -0.221065106E+01 -0.428729057E+01  0.249997969E+01
   N  0.228853376E+01 -0.430164020E+01  0.250004377E+01
   C -0.187956151E+01  0.375619562E+01  0.250009909E+01
   C  0.208823513E+01  0.338174147E+01  0.249982876E+01
   C -0.422685888E+01 -0.861721057E-01  0.249977730E+01
   C  0.380583642E+01  0.265666435E+00  0.249992808E+01
   H -0.102343529E+02  0.177125603E+02  0.249509178E+01
   H  0.107542109E+02  0.173222267E+02  0.249339184E+01
   H -0.212231902E+02 -0.264178230E+01  0.249155340E+01
   H  0.211199969E+02 -0.205496828E+01  0.249198224E+01
  Xx -0.119237345E+04  0.688528263E+03  0.249972376E+01
    11
 # iter = 30250  time[fs]=30.25000
   N -0.222668570E+01 -0.432035866E+01  0.249998106E+01
   N  0.230603759E+01 -0.433416836E+01  0.250004616E+01
   C -0.189332203E+01  0.378391035E+01  0.250010040E+01
   C  0.210383582E+01  0.340516262E+01  0.249982754E+01
   C -0.425918788E+01 -0.873052071E-01  0.249977835E+01
   C  0.383352120E+01  0.266640232E+00  0.249992820E+01
   H -0.103262624E+02  0.178701693E+02  0.249503942E+01
   H  0.108512442E+02  0.174765273E+02  0.249331885E+01
   H -0.214120113E+02 -0.266898432E+01  0.249146239E+01
   H  0.213071633E+02 -0.207690531E+01  0.249189808E+01
  Xx -0.120245422E+04  0.694349337E+03  0.249972140E+01
    11
 # iter = 30500  time[fs]=30.50000
   N -0.224274838E+01 -0.435342835E+01  0.249998229E+01
   N  0.232350004E+01 -0.436669583E+01  0.250004808E+01
   C -0.190711780E+01  0.381166968E+01  0.250010155E+01
   C  0.211947530E+01  0.342861971E+01  0.249982580E+01
   C -0.429157915E+01 -0.884554669E-01  0.249977902E+01
   C  0.386123713E+01  0.267598109E+00  0.249992849E+01
   H -0.104182408E+02  0.180278849E+02  0.249498707E+01
   H  0.109483485E+02  0.176309345E+02  0.249324587E+01
   H -0.216009479E+02 -0.269621521E+01  0.249137139E+01
   H  0.214944442E+02 -0.209887029E+01  0.249181393E+01
  Xx -0.121253499E+04  0.700170411E+03  0.249971904E+01
    11
 # iter = 30750  time[fs]=30.75000
   N -0.225882438E+01 -0.438651104E+01  0.249998337E+01
   N  0.234091738E+01 -0.439925060E+01  0.250004975E+01
   C -0.192093811E+01  0.383944577E+01  0.250010249E+01
   C  0.213513179E+01  0.345210980E+01  0.249982450E+01
   C -0.432400913E+01 -0.895930444E-01  0.249977968E+01
   C  0.388899390E+01  0.268522865E+00  0.249992891E+01
   H -0.105102857E+02  0.181857071E+02  0.249493472E+01
   H  0.110455239E+02  0.177854482E+02  0.249317288E+01
   H -0.217899947E+02 -0.272347460E+01  0.249128039E+01
   H  0.216818329E+02 -0.212086299E+01  0.249172977E+01
  Xx -0.122261575E+04  0.705991486E+03  0.249971669E+01
    11
 # iter = 31000  time[fs]=31.00000
   N -0.227490242E+01 -0.441964071E+01  0.249998464E+01
   N  0.235830600E+01 -0.443186104E+01  0.250005152E+01
   C -0.193479125E+01  0.386725991E+01  0.250010386E+01
   C  0.215081452E+01  0.347564210E+01  0.249982262E+01
   C -0.435646751E+01 -0.907663650E-01  0.249978089E+01
   C  0.391679920E+01  0.269437532E+00  0.249992900E+01
   H -0.106023972E+02  0.183436358E+02  0.249488236E+01
   H  0.111427678E+02  0.179400652E+02  0.249309990E+01
   H -0.219791480E+02 -0.275076177E+01  0.249118938E+01
   H  0.218693282E+02 -0.214288263E+01  0.249164562E+01
  Xx -0.123269652E+04  0.711812560E+03  0.249971433E+01
    11
 # iter = 31250  time[fs]=31.25000
   N -0.229096871E+01 -0.445284679E+01  0.249998612E+01
   N  0.237568767E+01 -0.446453319E+01  0.250005330E+01
   C -0.194866599E+01  0.389511453E+01  0.250010477E+01
   C  0.216652959E+01  0.349920262E+01  0.249982050E+01
   C -0.438898868E+01 -0.919305115E-01  0.249978112E+01
   C  0.394463769E+01  0.270320793E+00  0.249992911E+01
   H -0.106945754E+02  0.185016707E+02  0.249483001E+01
   H  0.112400783E+02  0.180947800E+02  0.249302691E+01
   H -0.221684079E+02 -0.277807670E+01  0.249109838E+01
   H  0.220569301E+02 -0.216492891E+01  0.249156146E+01
  Xx -0.124277729E+04  0.717633635E+03  0.249971197E+01
    11
 # iter = 31500  time[fs]=31.50000
   N -0.230700355E+01 -0.448612833E+01  0.249998731E+01
   N  0.239307741E+01 -0.449726051E+01  0.250005469E+01
   C -0.196257924E+01  0.392298689E+01  0.250010630E+01
   C  0.218226588E+01  0.352279631E+01  0.249981910E+01
   C -0.442153799E+01 -0.931075752E-01  0.249978214E+01
   C  0.397252707E+01  0.271176994E+00  0.249992939E+01
   H -0.107868193E+02  0.186598052E+02  0.249477766E+01
   H  0.113374555E+02  0.182495925E+02  0.249295392E+01
   H -0.223577744E+02 -0.280541911E+01  0.249100738E+01
   H  0.222446385E+02 -0.218700184E+01  0.249147731E+01
  Xx -0.125285806E+04  0.723454709E+03  0.249970961E+01
    11
 # iter = 31750  time[fs]=31.75000
   N -0.232299543E+01 -0.451945824E+01  0.249998834E+01
   N  0.241050126E+01 -0.453002014E+01  0.250005593E+01
   C -0.197652054E+01  0.395090697E+01  0.250010740E+01
   C  0.219804077E+01  0.354641414E+01  0.249981725E+01
   C -0.445414100E+01 -0.943078044E-01  0.249978328E+01
   C  0.400046568E+01  0.272001881E+00  0.249992969E+01
   H -0.108791259E+02  0.188180374E+02  0.249472530E+01
   H  0.114348992E+02  0.184045027E+02  0.249288094E+01
   H -0.225472468E+02 -0.283278823E+01  0.249091638E+01
   H  0.224324529E+02 -0.220910128E+01  0.249139315E+01
  Xx -0.126293883E+04  0.729275784E+03  0.249970725E+01
    11
 # iter = 32000  time[fs]=32.00000
   N -0.233895306E+01 -0.455280242E+01  0.249998965E+01
   N  0.242797389E+01 -0.456278231E+01  0.250005729E+01
   C -0.199048635E+01  0.397885702E+01  0.250010841E+01
   C  0.221383196E+01  0.357005729E+01  0.249981518E+01
   C -0.448680076E+01 -0.954901873E-01  0.249978360E+01
   C  0.402843120E+01  0.272797822E+00  0.249992996E+01
   H -0.109714946E+02  0.189763672E+02  0.249467295E+01
   H  0.115324095E+02  0.185595106E+02  0.249280795E+01
   H -0.227368186E+02 -0.286018398E+01  0.249082537E+01
   H  0.226203667E+02 -0.223122640E+01  0.249130900E+01
  Xx -0.127301959E+04  0.735096858E+03  0.249970490E+01
    11
 # iter = 32250  time[fs]=32.25000
   N -0.235489109E+01 -0.458614183E+01  0.249999128E+01
   N  0.244550626E+01 -0.459553384E+01  0.250005863E+01
   C -0.200449535E+01  0.400683278E+01  0.250010973E+01
   C  0.222965883E+01  0.359372468E+01  0.249981357E+01
   C -0.451948972E+01 -0.967062044E-01  0.249978491E+01
   C  0.405644417E+01  0.273561665E+00  0.249993043E+01
   H -0.110639255E+02  0.191347948E+02  0.249462060E+01
   H  0.116299849E+02  0.187146162E+02  0.249273497E+01
   H -0.229264882E+02 -0.288760605E+01  0.249073437E+01
   H  0.228083783E+02 -0.225337705E+01  0.249122484E+01
  Xx -0.128310036E+04  0.740917933E+03  0.249970254E+01
    11
 # iter = 32500  time[fs]=32.50000
   N -0.237081735E+01 -0.461948553E+01  0.249999276E+01
   N  0.246310164E+01 -0.462828017E+01  0.250005980E+01
   C -0.201852188E+01  0.403486301E+01  0.250011051E+01
   C  0.224552422E+01  0.361741173E+01  0.249981156E+01
   C -0.455223544E+01 -0.979183581E-01  0.249978551E+01
   C  0.408448035E+01  0.274302145E+00  0.249993110E+01
   H -0.111564186E+02  0.192933201E+02  0.249456824E+01
   H  0.117276224E+02  0.188698168E+02  0.249266198E+01
   H -0.231162554E+02 -0.291505367E+01  0.249064337E+01
   H  0.229964875E+02 -0.227555271E+01  0.249114069E+01
  Xx -0.129318113E+04  0.746739007E+03  0.249970018E+01
    11
 # iter = 32750  time[fs]=32.75000
   N -0.238673930E+01 -0.465285899E+01  0.249999392E+01
   N  0.248074081E+01 -0.466105067E+01  0.250006100E+01
   C -0.203256139E+01  0.406290767E+01  0.250011166E+01
   C  0.226140116E+01  0.364112317E+01  0.249980975E+01
   C -0.458500625E+01 -0.991407079E-01  0.249978628E+01
   C  0.411255551E+01  0.275001340E+00  0.249993174E+01
   H -0.112489721E+02  0.194519420E+02  0.249451589E+01
   H  0.118253221E+02  0.190251065E+02  0.249258899E+01
   H -0.233061203E+02 -0.294252674E+01  0.249055237E+01
   H  0.231846944E+02 -0.229775280E+01  0.249105653E+01
  Xx -0.130326190E+04  0.752560082E+03  0.249969782E+01
    11
 # iter = 33000  time[fs]=33.00000
   N -0.240267521E+01 -0.468628528E+01  0.249999492E+01
   N  0.249840769E+01 -0.469388316E+01  0.250006229E+01
   C -0.204663297E+01  0.409098186E+01  0.250011260E+01
   C  0.227730885E+01  0.366486389E+01  0.249980814E+01
   C -0.461780903E+01 -0.100385095E+00  0.249978768E+01
   C  0.414066790E+01  0.275692176E+00  0.249993215E+01
   H -0.113415834E+02  0.196106537E+02  0.249446353E+01
   H  0.119230840E+02  0.191804850E+02  0.249251601E+01
   H -0.234960829E+02 -0.297002448E+01  0.249046136E+01
   H  0.233729990E+02 -0.231997709E+01  0.249097238E+01
  Xx -0.131334267E+04  0.758381156E+03  0.249969546E+01
    11
 # iter = 33250  time[fs]=33.25000
   N -0.241864953E+01 -0.471977793E+01  0.249999625E+01
   N  0.251608665E+01 -0.472679206E+01  0.250006329E+01
   C -0.206071418E+01  0.411910477E+01  0.250011343E+01
   C  0.229322311E+01  0.368863757E+01  0.249980602E+01
   C -0.465065963E+01 -0.101618446E+00  0.249978818E+01
   C  0.416881019E+01  0.276346536E+00  0.249993243E+01
   H -0.114342524E+02  0.197694542E+02  0.249441118E+01
   H  0.120209057E+02  0.193359524E+02  0.249244302E+01
   H -0.236861427E+02 -0.299754666E+01  0.249037036E+01
   H  0.235614002E+02 -0.234222477E+01  0.249088822E+01
  Xx -0.132342344E+04  0.764202231E+03  0.249969311E+01
    11
 # iter = 33500  time[fs]=33.50000
   N -0.243467711E+01 -0.475333131E+01  0.249999798E+01
   N  0.253375839E+01 -0.475975369E+01  0.250006390E+01
   C -0.207480840E+01  0.414723351E+01  0.250011456E+01
   C  0.230914944E+01  0.371244538E+01  0.249980432E+01
   C -0.468353653E+01 -0.102896412E+00  0.249978949E+01
   C  0.419700287E+01  0.276985715E+00  0.249993283E+01
   H -0.115269792E+02  0.199283435E+02  0.249435883E+01
   H  0.121187852E+02  0.194915085E+02  0.249237004E+01
   H -0.238762933E+02 -0.302509305E+01  0.249027936E+01
   H  0.237498913E+02 -0.236449577E+01  0.249080407E+01
  Xx -0.133350420E+04  0.770023305E+03  0.249969075E+01
    11
 # iter = 33750  time[fs]=33.75000
   N -0.245075558E+01 -0.478691489E+01  0.249999955E+01
   N  0.255140760E+01 -0.479272494E+01  0.250006439E+01
   C -0.208892698E+01  0.417540873E+01  0.250011518E+01
   C  0.232509622E+01  0.373628146E+01  0.249980276E+01
   C -0.471646592E+01 -0.104155918E+00  0.249979045E+01
   C  0.422523873E+01  0.277601235E+00  0.249993345E+01
   H -0.116197635E+02  0.200873217E+02  0.249430647E+01
   H  0.122167224E+02  0.196471535E+02  0.249229705E+01
   H -0.240665326E+02 -0.305266282E+01  0.249018835E+01
   H  0.239384711E+02 -0.238678979E+01  0.249071991E+01
  Xx -0.134358497E+04  0.775844380E+03  0.249968839E+01
    11
 # iter = 34000  time[fs]=34.00000
   N -0.246687455E+01 -0.482049181E+01  0.250000070E+01
   N  0.256902324E+01 -0.482567321E+01  0.250006497E+01
   C -0.210306527E+01  0.420361583E+01  0.250011592E+01
   C  0.234104392E+01  0.376015590E+01  0.249980088E+01
   C -0.474943930E+01 -0.105435766E+00  0.249979094E+01
   C  0.425350777E+01  0.278182293E+00  0.249993372E+01
   H -0.117126024E+02  0.202463886E+02  0.249425412E+01
   H  0.123147173E+02  0.198028869E+02  0.249222406E+01
   H -0.242568609E+02 -0.308025591E+01  0.249009735E+01
   H  0.241271398E+02 -0.240910604E+01  0.249063576E+01
  Xx -0.135366574E+04  0.781665454E+03  0.249968603E+01
    11
 # iter = 34250  time[fs]=34.25000
   N -0.248302536E+01 -0.485404860E+01  0.250000174E+01
   N  0.258659971E+01 -0.485860449E+01  0.250006546E+01
   C -0.211722202E+01  0.423183958E+01  0.250011667E+01
   C  0.235701673E+01  0.378405623E+01  0.249979975E+01
   C -0.478243756E+01 -0.106731028E+00  0.249979235E+01
   C  0.428183155E+01  0.278734476E+00  0.249993396E+01
   H -0.118054946E+02  0.204055443E+02  0.249420177E+01
   H  0.124127699E+02  0.199587026E+02  0.249215108E+01
   H -0.244472779E+02 -0.310787227E+01  0.249000635E+01
   H  0.243158973E+02 -0.243144451E+01  0.249055160E+01
  Xx -0.136374651E+04  0.787486529E+03  0.249968367E+01
    11
 # iter = 34500  time[fs]=34.50000
   N -0.249919941E+01 -0.488761126E+01  0.250000313E+01
   N  0.260414834E+01 -0.489154698E+01  0.250006574E+01
   C -0.213140455E+01  0.426011816E+01  0.250011743E+01
   C  0.237300115E+01  0.380797538E+01  0.249979861E+01
   C -0.481548019E+01 -0.108015042E+00  0.249979287E+01
   C  0.431017151E+01  0.279262960E+00  0.249993432E+01
   H -0.118984400E+02  0.205647828E+02  0.249414941E+01
   H  0.125108803E+02  0.201145983E+02  0.249207809E+01
   H -0.246377837E+02 -0.313551113E+01  0.248991535E+01
   H  0.245047436E+02 -0.245380518E+01  0.249046745E+01
  Xx -0.137382728E+04  0.793307603E+03  0.249968131E+01
    11
 # iter = 34750  time[fs]=34.75000
   N -0.251538196E+01 -0.492122421E+01  0.250000473E+01
   N  0.262168968E+01 -0.492452497E+01  0.250006598E+01
   C -0.214560735E+01  0.428841140E+01  0.250011822E+01
   C  0.238900981E+01  0.383191799E+01  0.249979705E+01
   C -0.484854668E+01 -0.109333917E+00  0.249979391E+01
   C  0.433854266E+01  0.279749831E+00  0.249993460E+01
   H -0.119914388E+02  0.207241012E+02  0.249409706E+01
   H  0.126090469E+02  0.202705739E+02  0.249200510E+01
   H -0.248283784E+02 -0.316317219E+01  0.248982434E+01
   H  0.246936787E+02 -0.247618797E+01  0.249038329E+01
  Xx -0.138390804E+04  0.799128678E+03  0.249967896E+01
    11
 # iter = 35000  time[fs]=35.00000
   N -0.253155629E+01 -0.495490820E+01  0.250000606E+01
   N  0.263924012E+01 -0.495756723E+01  0.250006621E+01
   C -0.215984850E+01  0.431672259E+01  0.250011860E+01
   C  0.240504494E+01  0.385587716E+01  0.249979585E+01
   C -0.488164237E+01 -0.110635680E+00  0.249979517E+01
   C  0.436694989E+01  0.280219047E+00  0.249993518E+01
   H -0.120844908E+02  0.208834996E+02  0.249404470E+01
   H  0.127072668E+02  0.204266294E+02  0.249193212E+01
   H -0.250190609E+02 -0.319085547E+01  0.248973334E+01
   H  0.248826990E+02 -0.249859206E+01  0.249029914E+01
  Xx -0.139398881E+04  0.804949752E+03  0.249967660E+01
    11
 # iter = 35250  time[fs]=35.25000
   N -0.254770954E+01 -0.498865173E+01  0.250000710E+01
   N  0.265680819E+01 -0.499067694E+01  0.250006643E+01
   C -0.217411059E+01  0.434507812E+01  0.250011943E+01
   C  0.242109490E+01  0.387986324E+01  0.249979422E+01
   C -0.491478537E+01 -0.111962260E+00  0.249979556E+01
   C  0.439537462E+01  0.280653240E+00  0.249993579E+01
   H -0.121775957E+02  0.210429779E+02  0.249399235E+01
   H  0.128055399E+02  0.205827648E+02  0.249185913E+01
   H -0.252098245E+02 -0.321856048E+01  0.248964234E+01
   H  0.250717992E+02 -0.252101725E+01  0.249021498E+01
  Xx -0.140406958E+04  0.810770826E+03  0.249967424E+01
    11
 # iter = 35500  time[fs]=35.50000
   N -0.256383155E+01 -0.502242525E+01  0.250000818E+01
   N  0.267440520E+01 -0.502381905E+01  0.250006626E+01
   C -0.218839594E+01  0.437343914E+01  0.250012010E+01
   C  0.243718024E+01  0.390388089E+01  0.249979274E+01
   C -0.494795043E+01 -0.113304617E+00  0.249979702E+01
   C  0.442384944E+01  0.281058396E+00  0.249993622E+01
   H -0.122707502E+02  0.212025361E+02  0.249394000E+01
   H  0.129038664E+02  0.207389802E+02  0.249178615E+01
   H -0.254006680E+02 -0.324628660E+01  0.248955133E+01
   H  0.252609793E+02 -0.254346339E+01  0.249013083E+01
  Xx -0.141415035E+04  0.816591901E+03  0.249967188E+01
    11
 # iter = 35750  time[fs]=35.75000
   N -0.257991842E+01 -0.505620176E+01  0.250000961E+01
   N  0.269205074E+01 -0.505695456E+01  0.250006600E+01
   C -0.220272474E+01  0.440183843E+01  0.250012069E+01
   C  0.245328036E+01  0.392792916E+01  0.249979149E+01
   C -0.498116185E+01 -0.114637837E+00  0.249979789E+01
   C  0.445236212E+01  0.281435543E+00  0.249993684E+01
   H -0.123639536E+02  0.213621743E+02  0.249388764E+01
   H  0.130022461E+02  0.208952755E+02  0.249171316E+01
   H -0.255915915E+02 -0.327403381E+01  0.248946033E+01
   H  0.254502394E+02 -0.256592964E+01  0.249004667E+01
  Xx -0.142423112E+04  0.822412975E+03  0.249966952E+01
    11
 # iter = 36000  time[fs]=36.00000
   N -0.259597294E+01 -0.508997108E+01  0.250001102E+01
   N  0.270975200E+01 -0.509005800E+01  0.250006576E+01
   C -0.221706276E+01  0.443027404E+01  0.250012145E+01
   C  0.246940354E+01  0.395200845E+01  0.249978949E+01
   C -0.501441602E+01 -0.116008788E+00  0.249979865E+01
   C  0.448091084E+01  0.281780421E+00  0.249993738E+01
   H -0.124572058E+02  0.215218924E+02  0.249383529E+01
   H  0.131006759E+02  0.210516495E+02  0.249164017E+01
   H -0.257825949E+02 -0.330180186E+01  0.248936933E+01
   H  0.256395795E+02 -0.258841587E+01  0.248996252E+01
  Xx -0.143431189E+04  0.828234050E+03  0.249966717E+01
    11
 # iter = 36250  time[fs]=36.25000
   N -0.261200673E+01 -0.512373937E+01  0.250001200E+01
   N  0.272748935E+01 -0.512313671E+01  0.250006526E+01
   C -0.223142988E+01  0.445871716E+01  0.250012191E+01
   C  0.248554582E+01  0.397612254E+01  0.249978780E+01
   C -0.504768756E+01 -0.117360019E+00  0.249980024E+01
   C  0.450951201E+01  0.282105444E+00  0.249993788E+01
   H -0.125505069E+02  0.216816899E+02  0.249378294E+01
   H  0.131991546E+02  0.212080954E+02  0.249156719E+01
   H -0.259736782E+02 -0.332958996E+01  0.248927833E+01
   H  0.258289994E+02 -0.261092209E+01  0.248987836E+01
  Xx -0.144439265E+04  0.834055124E+03  0.249966481E+01
    11
 # iter = 36500  time[fs]=36.50000
   N -0.262803726E+01 -0.515752611E+01  0.250001272E+01
   N  0.274524306E+01 -0.515623000E+01  0.250006455E+01
   C -0.224583302E+01  0.448720693E+01  0.250012265E+01
   C  0.250170406E+01  0.400026950E+01  0.249978649E+01
   C -0.508100637E+01 -0.118732525E+00  0.249980090E+01
   C  0.453812863E+01  0.282412165E+00  0.249993860E+01
   H -0.126438568E+02  0.218415601E+02  0.249373058E+01
   H  0.132976822E+02  0.213646123E+02  0.249149420E+01
   H -0.261648415E+02 -0.335739804E+01  0.248918732E+01
   H  0.260184993E+02 -0.263344774E+01  0.248979421E+01
  Xx -0.145447342E+04  0.839876199E+03  0.249966245E+01
    11
 # iter = 36750  time[fs]=36.75000
   N -0.264408171E+01 -0.519136015E+01  0.250001366E+01
   N  0.276300551E+01 -0.518938491E+01  0.250006372E+01
   C -0.226023840E+01  0.451571918E+01  0.250012297E+01
   C  0.251788689E+01  0.402444098E+01  0.249978468E+01
   C -0.511434112E+01 -0.120113382E+00  0.249980239E+01
   C  0.456677799E+01  0.282674365E+00  0.249993909E+01
   H -0.127372555E+02  0.220015015E+02  0.249367823E+01
   H  0.133962586E+02  0.215212003E+02  0.249142122E+01
   H -0.263560847E+02 -0.338522608E+01  0.248909632E+01
   H  0.262080792E+02 -0.265599227E+01  0.248971005E+01
  Xx -0.146455419E+04  0.845697273E+03  0.249966009E+01
    11
 # iter = 37000  time[fs]=37.00000
   N -0.266014943E+01 -0.522525932E+01  0.250001482E+01
   N  0.278076929E+01 -0.522261944E+01  0.250006287E+01
   C -0.227467587E+01  0.454423704E+01  0.250012341E+01
   C  0.253406857E+01  0.404863312E+01  0.249978337E+01
   C -0.514770193E+01 -0.121487485E+00  0.249980367E+01
   C  0.459546505E+01  0.282929727E+00  0.249993985E+01
   H -0.128307011E+02  0.221615139E+02  0.249362588E+01
   H  0.134948838E+02  0.216778593E+02  0.249134823E+01
   H -0.265474073E+02 -0.341307338E+01  0.248900532E+01
   H  0.263977389E+02 -0.267855567E+01  0.248962590E+01
  Xx -0.147463496E+04  0.851518348E+03  0.249965773E+01
    11
 # iter = 37250  time[fs]=37.25000
   N -0.267624768E+01 -0.525921077E+01  0.250001591E+01
   N  0.279852113E+01 -0.525590829E+01  0.250006196E+01
   C -0.228912768E+01  0.457279962E+01  0.250012402E+01
   C  0.255027003E+01  0.407284436E+01  0.249978198E+01
   C -0.518111247E+01 -0.122892911E+00  0.249980440E+01
   C  0.462416673E+01  0.283152826E+00  0.249994067E+01
   H -0.129241910E+02  0.223215973E+02  0.249357352E+01
   H  0.135935579E+02  0.218345895E+02  0.249127524E+01
   H -0.267388026E+02 -0.344093955E+01  0.248891432E+01
   H  0.265874730E+02 -0.270113794E+01  0.248954175E+01
  Xx -0.148471573E+04  0.857339422E+03  0.249965538E+01
    11
 # iter = 37500  time[fs]=37.50000
   N -0.269238752E+01 -0.529317897E+01  0.250001678E+01
   N  0.281624376E+01 -0.528920275E+01  0.250006071E+01
   C -0.230358847E+01  0.460137060E+01  0.250012441E+01
   C  0.256648542E+01  0.409708511E+01  0.249978007E+01
   C -0.521453753E+01 -0.124292815E+00  0.249980608E+01
   C  0.465290797E+01  0.283345627E+00  0.249994136E+01
   H -0.130177254E+02  0.224817518E+02  0.249352117E+01
   H  0.136922808E+02  0.219913906E+02  0.249120226E+01
   H -0.269302689E+02 -0.346882459E+01  0.248882331E+01
   H  0.267772783E+02 -0.272373909E+01  0.248945759E+01
  Xx -0.149479649E+04  0.863160497E+03  0.249965302E+01
    11
 # iter = 37750  time[fs]=37.75000
   N -0.270857671E+01 -0.532713056E+01  0.250001746E+01
   N  0.283393026E+01 -0.532246775E+01  0.250005930E+01
   C -0.231807234E+01  0.462995761E+01  0.250012507E+01
   C  0.258269979E+01  0.412134602E+01  0.249977860E+01
   C -0.524802029E+01 -0.125712038E+00  0.249980700E+01
   C  0.468168959E+01  0.283517915E+00  0.249994242E+01
   H -0.131113041E+02  0.226419773E+02  0.249346881E+01
   H  0.137910516E+02  0.221482628E+02  0.249112927E+01
   H -0.271218064E+02 -0.349672851E+01  0.248873231E+01
   H  0.269671545E+02 -0.274635879E+01  0.248937344E+01
  Xx -0.150487726E+04  0.868981571E+03  0.249965066E+01
    11
 # iter = 38000  time[fs]=38.00000
   N -0.272480963E+01 -0.536105803E+01  0.250001824E+01
   N  0.285159075E+01 -0.535570440E+01  0.250005804E+01
   C -0.233255641E+01  0.465859221E+01  0.250012537E+01
   C  0.259893610E+01  0.414563294E+01  0.249977701E+01
   C -0.528152448E+01 -0.127139102E+00  0.249980814E+01
   C  0.471049220E+01  0.283656719E+00  0.249994331E+01
   H -0.132049273E+02  0.228022739E+02  0.249341646E+01
   H  0.138898669E+02  0.223052061E+02  0.249105629E+01
   H -0.273134148E+02 -0.352465130E+01  0.248864131E+01
   H  0.271571019E+02 -0.276899629E+01  0.248928928E+01
  Xx -0.151495803E+04  0.874802646E+03  0.249964830E+01
    11
 # iter = 38250  time[fs]=38.25000
   N -0.274106902E+01 -0.539499002E+01  0.250001915E+01
   N  0.286924426E+01 -0.538893450E+01  0.250005672E+01
   C -0.234706301E+01  0.468722557E+01  0.250012592E+01
   C  0.261517642E+01  0.416994989E+01  0.249977516E+01
   C -0.531504201E+01 -0.128570657E+00  0.249980979E+01
   C  0.473935299E+01  0.283767622E+00  0.249994413E+01
   H -0.132985949E+02  0.229626416E+02  0.249336411E+01
   H  0.139887267E+02  0.224622204E+02  0.249098330E+01
   H -0.275050943E+02 -0.355259278E+01  0.248855030E+01
   H  0.273471203E+02 -0.279165155E+01  0.248920513E+01
  Xx -0.152503880E+04  0.880623720E+03  0.249964594E+01
    11
 # iter = 38500  time[fs]=38.50000
   N -0.275733507E+01 -0.542896717E+01  0.250001989E+01
   N  0.288690412E+01 -0.542219378E+01  0.250005511E+01
   C -0.236158595E+01  0.471589588E+01  0.250012668E+01
   C  0.263143525E+01  0.419429082E+01  0.249977386E+01
   C -0.534861016E+01 -0.130026464E+00  0.249981084E+01
   C  0.476823539E+01  0.283852849E+00  0.249994525E+01
   H -0.133923069E+02  0.231230803E+02  0.249331175E+01
   H  0.140876309E+02  0.226193057E+02  0.249091031E+01
   H -0.276968449E+02 -0.358055214E+01  0.248845930E+01
   H  0.275372097E+02 -0.281432458E+01  0.248912097E+01
  Xx -0.153511957E+04  0.886444795E+03  0.249964358E+01
    11
 # iter = 38750  time[fs]=38.75000
   N -0.277359372E+01 -0.546300897E+01  0.250002033E+01
   N  0.290457678E+01 -0.545551779E+01  0.250005349E+01
   C -0.237612261E+01  0.474459925E+01  0.250012700E+01
   C  0.264771285E+01  0.421866785E+01  0.249977205E+01
   C -0.538217180E+01 -0.131478922E+00  0.249981246E+01
   C  0.479714011E+01  0.283904695E+00  0.249994594E+01
   H -0.134860633E+02  0.232835887E+02  0.249325940E+01
   H  0.141865795E+02  0.227764560E+02  0.249083733E+01
   H -0.278886666E+02 -0.360852926E+01  0.248836830E+01
   H  0.277273702E+02 -0.283701537E+01  0.248903682E+01
  Xx -0.154520033E+04  0.892265869E+03  0.249964123E+01
    11
 # iter = 39000  time[fs]=39.00000
   N -0.278983764E+01 -0.549710373E+01  0.250002079E+01
   N  0.292227467E+01 -0.548890810E+01  0.250005191E+01
   C -0.239069514E+01  0.477329928E+01  0.250012749E+01
   C  0.266400442E+01  0.424306720E+01  0.249977035E+01
   C -0.541578123E+01 -0.132949023E+00  0.249981362E+01
   C  0.482608800E+01  0.283929785E+00  0.249994674E+01
   H -0.135798632E+02  0.234441602E+02  0.249320705E+01
   H  0.142855725E+02  0.229336686E+02  0.249076434E+01
   H -0.280805592E+02 -0.363652415E+01  0.248827730E+01
   H  0.279176017E+02 -0.285972367E+01  0.248895266E+01
  Xx -0.155528110E+04  0.898086944E+03  0.249963887E+01
    11
 # iter = 39250  time[fs]=39.25000
   N -0.280606165E+01 -0.553122023E+01  0.250002155E+01
   N  0.294001428E+01 -0.552233309E+01  0.250005009E+01
   C -0.240527964E+01  0.480204573E+01  0.250012798E+01
   C  0.268032248E+01  0.426749692E+01  0.249976917E+01
   C -0.544942669E+01 -0.134429291E+00  0.249981453E+01
   C  0.485504421E+01  0.283935131E+00  0.249994772E+01
   H -0.136737034E+02  0.236047938E+02  0.249315469E+01
   H  0.143846099E+02  0.230909433E+02  0.249069136E+01
   H -0.282725230E+02 -0.366453679E+01  0.248818629E+01
   H  0.281079043E+02 -0.288244868E+01  0.248886851E+01
  Xx -0.156536187E+04  0.903908018E+03  0.249963651E+01
    11
 # iter = 39500  time[fs]=39.50000
   N -0.282225751E+01 -0.556532872E+01  0.250002242E+01
   N  0.295780421E+01 -0.555574747E+01  0.250004806E+01
   C -0.241989357E+01  0.483080435E+01  0.250012851E+01
   C  0.269665884E+01  0.429195200E+01  0.249976749E+01
   C -0.548308722E+01 -0.135918059E+00  0.249981615E+01
   C  0.488403562E+01  0.283906948E+00  0.249994838E+01
   H -0.137675835E+02  0.237654897E+02  0.249310234E+01
   H  0.144836917E+02  0.232482803E+02  0.249061837E+01
   H -0.284645567E+02 -0.369256682E+01  0.248809529E+01
   H  0.282982780E+02 -0.290519034E+01  0.248878435E+01
  Xx -0.157544264E+04  0.909729092E+03  0.249963415E+01
    11
 # iter = 39750  time[fs]=39.75000
   N -0.283841827E+01 -0.559941546E+01  0.250002307E+01
   N  0.297563444E+01 -0.558911602E+01  0.250004607E+01
   C -0.243453334E+01  0.485956780E+01  0.250012906E+01
   C  0.271302170E+01  0.431642036E+01  0.249976610E+01
   C -0.551680110E+01 -0.137420434E+00  0.249981717E+01
   C  0.491306555E+01  0.283860962E+00  0.249994918E+01
   H -0.138615036E+02  0.239262476E+02  0.249304998E+01
   H  0.145828174E+02  0.234056793E+02  0.249054538E+01
   H -0.286566536E+02 -0.372061351E+01  0.248800429E+01
   H  0.284887182E+02 -0.292794865E+01  0.248870020E+01
  Xx -0.158552341E+04  0.915550167E+03  0.249963179E+01
    11
 # iter = 40000  time[fs]=40.00000
   N -0.285454895E+01 -0.563349243E+01  0.250002350E+01
   N  0.299348375E+01 -0.562245017E+01  0.250004409E+01
   C -0.244919210E+01  0.488838252E+01  0.250012955E+01
   C  0.272940049E+01  0.434092097E+01  0.249976485E+01
   C -0.555051595E+01 -0.138935941E+00  0.249981877E+01
   C  0.494211444E+01  0.283796075E+00  0.249994995E+01
   H -0.139554637E+02  0.240870678E+02  0.249299763E+01
   H  0.146819837E+02  0.235631406E+02  0.249047240E+01
   H -0.288488127E+02 -0.374867685E+01  0.248791329E+01
   H  0.286792205E+02 -0.295072362E+01  0.248861604E+01
  Xx -0.159560418E+04  0.921371241E+03  0.249962944E+01
    11
 # iter = 40250  time[fs]=40.25000
   N -0.287066738E+01 -0.566759462E+01  0.250002403E+01
   N  0.301133740E+01 -0.565580291E+01  0.250004197E+01
   C -0.246388429E+01  0.491719016E+01  0.250013005E+01
   C  0.274579547E+01  0.436543176E+01  0.249976318E+01
   C -0.558426416E+01 -0.140466075E+00  0.249982058E+01
   C  0.497120775E+01  0.283689772E+00  0.249995063E+01
   H -0.140494637E+02  0.242479502E+02  0.249294528E+01
   H  0.147811899E+02  0.237206640E+02  0.249039941E+01
   H -0.290410340E+02 -0.377675685E+01  0.248782228E+01
   H  0.288697850E+02 -0.297351497E+01  0.248853189E+01
  Xx -0.160568494E+04  0.927192316E+03  0.249962708E+01
    11
 # iter = 40500  time[fs]=40.50000
   N -0.288679201E+01 -0.570175528E+01  0.250002480E+01
   N  0.302918974E+01 -0.568921562E+01  0.250003968E+01
   C -0.247859436E+01  0.494603239E+01  0.250013039E+01
   C  0.276220418E+01  0.438996568E+01  0.249976204E+01
   C -0.561804433E+01 -0.142001789E+00  0.249982179E+01
   C  0.500033568E+01  0.283576220E+00  0.249995156E+01
   H -0.141435037E+02  0.244088947E+02  0.249289292E+01
   H  0.148804360E+02  0.238782496E+02  0.249032643E+01
   H -0.292333174E+02 -0.380485350E+01  0.248773128E+01
   H  0.290604117E+02 -0.299632191E+01  0.248844773E+01
  Xx -0.161576571E+04  0.933013390E+03  0.249962472E+01
    11
 # iter = 40750  time[fs]=40.75000
   N -0.290293368E+01 -0.573597571E+01  0.250002550E+01
   N  0.304703161E+01 -0.572269285E+01  0.250003738E+01
   C -0.249332497E+01  0.497491453E+01  0.250013080E+01
   C  0.277862093E+01  0.441453317E+01  0.249976062E+01
   C -0.565182416E+01 -0.143554186E+00  0.249982384E+01
   C  0.502947991E+01  0.283425671E+00  0.249995224E+01
   H -0.142375837E+02  0.245699013E+02  0.249284057E+01
   H  0.149797222E+02  0.240358974E+02  0.249025344E+01
   H -0.294256631E+02 -0.383296664E+01  0.248764028E+01
   H  0.292511005E+02 -0.301914439E+01  0.248836358E+01
  Xx -0.162584648E+04  0.938834465E+03  0.249962236E+01
    11
 # iter = 41000  time[fs]=41.00000
   N -0.291910270E+01 -0.577022702E+01  0.250002596E+01
   N  0.306484418E+01 -0.575621338E+01  0.250003515E+01
   C -0.250807250E+01  0.500378639E+01  0.250013100E+01
   C  0.279505150E+01  0.443911925E+01  0.249975878E+01
   C -0.568566479E+01 -0.145113052E+00  0.249982537E+01
   C  0.505865800E+01  0.283250621E+00  0.249995274E+01
   H -0.143317036E+02  0.247309702E+02  0.249278822E+01
   H  0.150790483E+02  0.241936073E+02  0.249018045E+01
   H -0.296180708E+02 -0.386109544E+01  0.248754927E+01
   H  0.294418516E+02 -0.304198242E+01  0.248827942E+01
  Xx -0.163592725E+04  0.944655539E+03  0.249962000E+01
    11
 # iter = 41250  time[fs]=41.25000
   N -0.293531057E+01 -0.580447320E+01  0.250002628E+01
   N  0.308261229E+01 -0.578974187E+01  0.250003280E+01
   C -0.252283191E+01  0.503270472E+01  0.250013149E+01
   C  0.281148394E+01  0.446374822E+01  0.249975773E+01
   C -0.571951664E+01 -0.146690033E+00  0.249982676E+01
   C  0.508785724E+01  0.283059924E+00  0.249995361E+01
   H -0.144258633E+02  0.248921012E+02  0.249273586E+01
   H  0.151784143E+02  0.243513794E+02  0.249010747E+01
   H -0.298105408E+02 -0.388923978E+01  0.248745827E+01
   H  0.296326648E+02 -0.306483599E+01  0.248819527E+01
  Xx -0.164600802E+04  0.950476614E+03  0.249961765E+01
    11
 # iter = 41500  time[fs]=41.50000
   N -0.295156381E+01 -0.583869493E+01  0.250002666E+01
   N  0.310034452E+01 -0.582324385E+01  0.250003028E+01
   C -0.253760993E+01  0.506163800E+01  0.250013192E+01
   C  0.282792561E+01  0.448839511E+01  0.249975626E+01
   C -0.575339628E+01 -0.148275903E+00  0.249982852E+01
   C  0.511706632E+01  0.282837948E+00  0.249995423E+01
   H -0.145200596E+02  0.250532944E+02  0.249268351E+01
   H  0.152778204E+02  0.245092101E+02  0.249003448E+01
   H -0.300030730E+02 -0.391739967E+01  0.248736727E+01
   H  0.298235401E+02 -0.308770475E+01  0.248811111E+01
  Xx -0.165608878E+04  0.956297688E+03  0.249961529E+01
    11
 # iter = 41750  time[fs]=41.75000
   N -0.296785809E+01 -0.587290598E+01  0.250002703E+01
   N  0.311806648E+01 -0.585671172E+01  0.250002767E+01
   C -0.255240143E+01  0.509056991E+01  0.250013183E+01
   C  0.284437928E+01  0.451306314E+01  0.249975462E+01
   C -0.578731827E+01 -0.149869873E+00  0.249982979E+01
   C  0.514632342E+01  0.282597112E+00  0.249995501E+01
   H -0.146142914E+02  0.252145498E+02  0.249263116E+01
   H  0.153772664E+02  0.246670941E+02  0.248996150E+01
   H -0.301956673E+02 -0.394557510E+01  0.248727627E+01
   H  0.300144777E+02 -0.311058796E+01  0.248802696E+01
  Xx -0.166616955E+04  0.962118763E+03  0.249961293E+01
    11
 # iter = 42000  time[fs]=42.00000
   N -0.298418145E+01 -0.590713967E+01  0.250002731E+01
   N  0.313579431E+01 -0.589017227E+01  0.250002497E+01
   C -0.256719974E+01  0.511955775E+01  0.250013220E+01
   C  0.286083454E+01  0.453776569E+01  0.249975354E+01
   C -0.582124055E+01 -0.151486603E+00  0.249983159E+01
   C  0.517558946E+01  0.282340021E+00  0.249995600E+01
   H -0.147085588E+02  0.253758661E+02  0.249257880E+01
   H  0.154767524E+02  0.248250314E+02  0.248988851E+01
   H -0.303883238E+02 -0.397376607E+01  0.248718526E+01
   H  0.302054774E+02 -0.313348560E+01  0.248794280E+01
  Xx -0.167625032E+04  0.967939837E+03  0.249961057E+01
    11
 # iter = 42250  time[fs]=42.25000
   N -0.300052053E+01 -0.594142050E+01  0.250002743E+01
   N  0.315353161E+01 -0.592366278E+01  0.250002226E+01
   C -0.258200284E+01  0.514853842E+01  0.250013234E+01
   C  0.287730488E+01  0.456247321E+01  0.249975197E+01
   C -0.585520556E+01 -0.153100330E+00  0.249983328E+01
   C  0.520489796E+01  0.282054461E+00  0.249995679E+01
   H -0.148028617E+02  0.255372368E+02  0.249252645E+01
   H  0.155762767E+02  0.249830220E+02  0.248981552E+01
   H -0.305810424E+02 -0.400197258E+01  0.248709426E+01
   H  0.303965393E+02 -0.315639768E+01  0.248785865E+01
  Xx -0.168633109E+04  0.973760912E+03  0.249960821E+01
    11
 # iter = 42500  time[fs]=42.50000
   N -0.301686330E+01 -0.597575306E+01  0.250002763E+01
   N  0.317129507E+01 -0.595720573E+01  0.250001962E+01
   C -0.259682157E+01  0.517754433E+01  0.250013248E+01
   C  0.289378269E+01  0.458720384E+01  0.249975061E+01
   C -0.588917924E+01 -0.154739991E+00  0.249983466E+01
   C  0.523424545E+01  0.281748461E+00  0.249995787E+01
   H -0.148972001E+02  0.256986608E+02  0.249247409E+01
   H  0.156758366E+02  0.251410658E+02  0.248974254E+01
   H -0.307738232E+02 -0.403019464E+01  0.248700326E+01
   H  0.305876633E+02 -0.317932419E+01  0.248777449E+01
  Xx -0.169641186E+04  0.979581986E+03  0.249960586E+01
    11
 # iter = 42750  time[fs]=42.75000
   N -0.303319729E+01 -0.601012271E+01  0.250002799E+01
   N  0.318911116E+01 -0.599080435E+01  0.250001707E+01
   C -0.261165216E+01  0.520659548E+01  0.250013290E+01
   C  0.291028240E+01  0.461195085E+01  0.249974943E+01
   C -0.592317243E+01 -0.156389065E+00  0.249983664E+01
   C  0.526360536E+01  0.281428031E+00  0.249995883E+01
   H -0.149915740E+02  0.258601380E+02  0.249242174E+01
   H  0.157754321E+02  0.252991630E+02  0.248966955E+01
   H -0.309666662E+02 -0.405843224E+01  0.248691225E+01
   H  0.307788485E+02 -0.320226513E+01  0.248769034E+01
  Xx -0.170649262E+04  0.985403061E+03  0.249960350E+01
    11
 # iter = 43000  time[fs]=43.00000
   N -0.304950707E+01 -0.604450255E+01  0.250002842E+01
   N  0.320698728E+01 -0.602443426E+01  0.250001449E+01
   C -0.262649318E+01  0.523563522E+01  0.250013270E+01
   C  0.292679764E+01  0.463670756E+01  0.249974754E+01
   C -0.595721654E+01 -0.158045321E+00  0.249983817E+01
   C  0.529299723E+01  0.281063727E+00  0.249995943E+01
   H -0.150859835E+02  0.260216685E+02  0.249236939E+01
   H  0.158750631E+02  0.254573134E+02  0.248959656E+01
   H -0.311595662E+02 -0.408668539E+01  0.248682125E+01
   H  0.309700880E+02 -0.322522044E+01  0.248760618E+01
  Xx -0.171657339E+04  0.991224135E+03  0.249960114E+01
    11
 # iter = 43250  time[fs]=43.25000
   N -0.306577928E+01 -0.607886839E+01  0.250002863E+01
   N  0.322490823E+01 -0.605804721E+01  0.250001187E+01
   C -0.264135369E+01  0.526471996E+01  0.250013287E+01
   C  0.294332261E+01  0.466149939E+01  0.249974636E+01
   C -0.599126689E+01 -0.159729110E+00  0.249983980E+01
   C  0.532240614E+01  0.280693847E+00  0.249996032E+01
   H -0.151804285E+02  0.261832523E+02  0.249231703E+01
   H  0.159747296E+02  0.256155172E+02  0.248952358E+01
   H -0.313525196E+02 -0.411495399E+01  0.248673025E+01
   H  0.311613809E+02 -0.324818981E+01  0.248752203E+01
  Xx -0.172665416E+04  0.997045210E+03  0.249959878E+01
    11
 # iter = 43500  time[fs]=43.50000
   N -0.308201067E+01 -0.611321436E+01  0.250002860E+01
   N  0.324285362E+01 -0.609161182E+01  0.250000918E+01
   C -0.265622630E+01  0.529382529E+01  0.250013294E+01
   C  0.295987820E+01  0.468631036E+01  0.249974517E+01
   C -0.602535778E+01 -0.161407909E+00  0.249984157E+01
   C  0.535182859E+01  0.280300278E+00  0.249996089E+01
   H -0.152749090E+02  0.263448895E+02  0.249226468E+01
   H  0.160744316E+02  0.257737742E+02  0.248945059E+01
   H -0.315455262E+02 -0.414323650E+01  0.248663925E+01
   H  0.313527270E+02 -0.327117276E+01  0.248743787E+01
  Xx -0.173673493E+04  0.100286628E+04  0.249959642E+01
    11
 # iter = 43750  time[fs]=43.75000
   N -0.309821106E+01 -0.614755953E+01  0.250002852E+01
   N  0.326081020E+01 -0.612514947E+01  0.250000649E+01
   C -0.267112591E+01  0.532292357E+01  0.250013290E+01
   C  0.297644374E+01  0.471115047E+01  0.249974361E+01
   C -0.605947215E+01 -0.163118630E+00  0.249984294E+01
   C  0.538127875E+01  0.279871584E+00  0.249996154E+01
   H -0.153694250E+02  0.265065799E+02  0.249221233E+01
   H  0.161741692E+02  0.259320845E+02  0.248937761E+01
   H -0.317385861E+02 -0.417153233E+01  0.248654824E+01
   H  0.315441265E+02 -0.329416903E+01  0.248735372E+01
  Xx -0.174681570E+04  0.100868736E+04  0.249959406E+01
    11
 # iter = 44000  time[fs]=44.00000
   N -0.311439370E+01 -0.618193957E+01  0.250002842E+01
   N  0.327876414E+01 -0.615871097E+01  0.250000394E+01
   C -0.268603983E+01  0.535207511E+01  0.250013326E+01
   C  0.299303027E+01  0.473601957E+01  0.249974274E+01
   C -0.609359303E+01 -0.164835057E+00  0.249984491E+01
   C  0.541075871E+01  0.279441860E+00  0.249996253E+01
   H -0.154639766E+02  0.266683235E+02  0.249215997E+01
   H  0.162739423E+02  0.260904481E+02  0.248930462E+01
   H -0.319316992E+02 -0.419984148E+01  0.248645724E+01
   H  0.317355792E+02 -0.331717862E+01  0.248726956E+01
  Xx -0.175689647E+04  0.101450843E+04  0.249959171E+01
    11
 # iter = 44250  time[fs]=44.25000
   N -0.313056904E+01 -0.621637520E+01  0.250002835E+01
   N  0.329669543E+01 -0.619232247E+01  0.250000135E+01
   C -0.270097431E+01  0.538122386E+01  0.250013327E+01
   C  0.300963445E+01  0.476090669E+01  0.249974146E+01
   C -0.612775422E+01 -0.166559145E+00  0.249984656E+01
   C  0.544025854E+01  0.278980102E+00  0.249996329E+01
   H -0.155585625E+02  0.268301205E+02  0.249210762E+01
   H  0.163737509E+02  0.262488650E+02  0.248923163E+01
   H -0.321248657E+02 -0.422816396E+01  0.248636624E+01
   H  0.319270852E+02 -0.334020154E+01  0.248718541E+01
  Xx -0.176697723E+04  0.102032951E+04  0.249958935E+01
    11
 # iter = 44500  time[fs]=44.50000
   N -0.314674960E+01 -0.625085511E+01  0.250002822E+01
   N  0.331458725E+01 -0.622597987E+01  0.249999867E+01
   C -0.271594248E+01  0.541039087E+01  0.250013347E+01
   C  0.302623980E+01  0.478581769E+01  0.249974010E+01
   C -0.616192036E+01 -0.168315640E+00  0.249984810E+01
   C  0.546980369E+01  0.278498087E+00  0.249996420E+01
   H -0.156531797E+02  0.269919708E+02  0.249205527E+01
   H  0.164735950E+02  0.264073352E+02  0.248915865E+01
   H -0.323180855E+02 -0.425649975E+01  0.248627524E+01
   H  0.321186445E+02 -0.336323778E+01  0.248710125E+01
  Xx -0.177705800E+04  0.102615058E+04  0.249958699E+01
    11
 # iter = 44750  time[fs]=44.75000
   N -0.316295514E+01 -0.628534743E+01  0.250002801E+01
   N  0.333243066E+01 -0.625966837E+01  0.249999601E+01
   C -0.273091101E+01  0.543960032E+01  0.250013350E+01
   C  0.304286140E+01  0.481074510E+01  0.249973941E+01
   C -0.619612160E+01 -0.170061715E+00  0.249985012E+01
   C  0.549937235E+01  0.278003963E+00  0.249996510E+01
   H -0.157478279E+02  0.271538744E+02  0.249200291E+01
   H  0.165734747E+02  0.265658587E+02  0.248908566E+01
   H -0.325113586E+02 -0.428484887E+01  0.248618423E+01
   H  0.323102571E+02 -0.338628734E+01  0.248701710E+01
  Xx -0.178713877E+04  0.103197166E+04  0.249958463E+01
    11
 # iter = 45000  time[fs]=45.00000
   N -0.317920435E+01 -0.631982338E+01  0.250002768E+01
   N  0.335022719E+01 -0.629336491E+01  0.249999353E+01
   C -0.274590492E+01  0.546879683E+01  0.250013354E+01
   C  0.305947740E+01  0.483568253E+01  0.249973804E+01
   C -0.623035814E+01 -0.171842159E+00  0.249985161E+01
   C  0.552896258E+01  0.277478203E+00  0.249996579E+01
   H -0.158425072E+02  0.273158312E+02  0.249195056E+01
   H  0.166733899E+02  0.267244354E+02  0.248901268E+01
   H -0.327046849E+02 -0.431321132E+01  0.248609323E+01
   H  0.325019230E+02 -0.340935022E+01  0.248693294E+01
  Xx -0.179721954E+04  0.103779273E+04  0.249958227E+01
    11
 # iter = 45250  time[fs]=45.25000
   N -0.319550211E+01 -0.635427871E+01  0.250002726E+01
   N  0.336799628E+01 -0.632704568E+01  0.249999103E+01
   C -0.276092340E+01  0.549803761E+01  0.250013378E+01
   C  0.307610324E+01  0.486063929E+01  0.249973706E+01
   C -0.626460415E+01 -0.173628545E+00  0.249985325E+01
   C  0.555858316E+01  0.276930800E+00  0.249996674E+01
   H -0.159372177E+02  0.274778414E+02  0.249189820E+01
   H  0.167733406E+02  0.268830655E+02  0.248893969E+01
   H -0.328980645E+02 -0.434158708E+01  0.248600223E+01
   H  0.326936422E+02 -0.343242631E+01  0.248684879E+01
  Xx -0.180730031E+04  0.104361381E+04  0.249957992E+01
    11
 # iter = 45500  time[fs]=45.50000
   N -0.321184034E+01 -0.638873579E+01  0.250002676E+01
   N  0.338576585E+01 -0.636069860E+01  0.249998837E+01
   C -0.277593800E+01  0.552730211E+01  0.250013372E+01
   C  0.309274060E+01  0.488561499E+01  0.249973652E+01
   C -0.629888690E+01 -0.175421671E+00  0.249985481E+01
   C  0.558820504E+01  0.276369993E+00  0.249996761E+01
   H -0.160319594E+02  0.276399048E+02  0.249184585E+01
   H  0.168733269E+02  0.270417478E+02  0.248886670E+01
   H -0.330914975E+02 -0.436997617E+01  0.248591122E+01
   H  0.328854146E+02 -0.345551476E+01  0.248676463E+01
  Xx -0.181738107E+04  0.104943488E+04  0.249957756E+01
    11
 # iter = 45750  time[fs]=45.75000
   N -0.322820883E+01 -0.642322235E+01  0.250002616E+01
   N  0.340355213E+01 -0.639433961E+01  0.249998576E+01
   C -0.279097539E+01  0.555655579E+01  0.250013403E+01
   C  0.310936876E+01  0.491061158E+01  0.249973524E+01
   C -0.633317869E+01 -0.177246592E+00  0.249985629E+01
   C  0.561786051E+01  0.275778272E+00  0.249996832E+01
   H -0.161267355E+02  0.278020215E+02  0.249179350E+01
   H  0.169733487E+02  0.272004757E+02  0.248879372E+01
   H -0.332849837E+02 -0.439837858E+01  0.248582022E+01
   H  0.330772404E+02 -0.347861542E+01  0.248668048E+01
  Xx -0.182746184E+04  0.105525595E+04  0.249957520E+01
    11
 # iter = 46000  time[fs]=46.00000
   N -0.324460073E+01 -0.645775394E+01  0.250002557E+01
   N  0.342136743E+01 -0.642801041E+01  0.249998337E+01
   C -0.280601823E+01  0.558585848E+01  0.250013397E+01
   C  0.312602209E+01  0.493563828E+01  0.249973463E+01
   C -0.636748440E+01 -0.179056591E+00  0.249985823E+01
   C  0.564753314E+01  0.275174219E+00  0.249996929E+01
   H -0.162215407E+02  0.279641915E+02  0.249174114E+01
   H  0.170734060E+02  0.273592479E+02  0.248872073E+01
   H -0.334785232E+02 -0.442679432E+01  0.248572922E+01
   H  0.332691194E+02 -0.350172830E+01  0.248659632E+01
  Xx -0.183754261E+04  0.106107703E+04  0.249957284E+01
    11
 # iter = 46250  time[fs]=46.25000
   N -0.326100745E+01 -0.649232883E+01  0.250002501E+01
   N  0.343923624E+01 -0.646173748E+01  0.249998092E+01
   C -0.282106621E+01  0.561516178E+01  0.250013422E+01
   C  0.314267672E+01  0.496068732E+01  0.249973400E+01
   C -0.640182631E+01 -0.180904022E+00  0.249985968E+01
   C  0.567722773E+01  0.274556378E+00  0.249997007E+01
   H -0.163163726E+02  0.281264098E+02  0.249168879E+01
   H  0.171734988E+02  0.275180646E+02  0.248864775E+01
   H -0.336721160E+02 -0.445522337E+01  0.248563822E+01
   H  0.334610518E+02 -0.352485338E+01  0.248651217E+01
  Xx -0.184762338E+04  0.106689810E+04  0.249957048E+01
    11
 # iter = 46500  time[fs]=46.50000
   N -0.327741122E+01 -0.652692676E+01  0.250002451E+01
   N  0.345717646E+01 -0.649550905E+01  0.249997830E+01
   C -0.283612880E+01  0.564447191E+01  0.250013442E+01
   C  0.315934043E+01  0.498576366E+01  0.249973304E+01
   C -0.643617790E+01 -0.182756318E+00  0.249986133E+01
   C  0.570696282E+01  0.273904703E+00  0.249997080E+01
   H -0.164112312E+02  0.282886725E+02  0.249163644E+01
   H  0.172736272E+02  0.276769257E+02  0.248857476E+01
   H -0.338657621E+02 -0.448366575E+01  0.248554721E+01
   H  0.336530374E+02 -0.354799068E+01  0.248642801E+01
  Xx -0.185770415E+04  0.107271918E+04  0.249956813E+01
    11
 # iter = 46750  time[fs]=46.75000
   N -0.329378862E+01 -0.656151956E+01  0.250002398E+01
   N  0.347517499E+01 -0.652929067E+01  0.249997561E+01
   C -0.285118484E+01  0.567383049E+01  0.250013422E+01
   C  0.317603213E+01  0.501086538E+01  0.249973291E+01
   C -0.647056653E+01 -0.184611313E+00  0.249986316E+01
   C  0.573672305E+01  0.273255311E+00  0.249997168E+01
   H -0.165061164E+02  0.284509796E+02  0.249158408E+01
   H  0.173737910E+02  0.278358312E+02  0.248850177E+01
   H -0.340594615E+02 -0.451212146E+01  0.248545621E+01
   H  0.338450763E+02 -0.357114020E+01  0.248634386E+01
  Xx -0.186778492E+04  0.107854025E+04  0.249956577E+01
    11
 # iter = 47000  time[fs]=47.00000
   N -0.331012436E+01 -0.659609007E+01  0.250002347E+01
   N  0.349320172E+01 -0.656305023E+01  0.249997324E+01
   C -0.286626629E+01  0.570317611E+01  0.250013484E+01
   C  0.319272974E+01  0.503597749E+01  0.249973225E+01
   C -0.650497961E+01 -0.186503624E+00  0.249986452E+01
   C  0.576650333E+01  0.272576316E+00  0.249997238E+01
   H -0.166010282E+02  0.286133310E+02  0.249153173E+01
   H  0.174739898E+02  0.279947811E+02  0.248842879E+01
   H -0.342532142E+02 -0.454059048E+01  0.248536521E+01
   H  0.340371685E+02 -0.359430192E+01  0.248625970E+01
  Xx -0.187786568E+04  0.108436133E+04  0.249956341E+01
    11
 # iter = 47250  time[fs]=47.25000
   N -0.332641898E+01 -0.663064691E+01  0.250002287E+01
   N  0.351123778E+01 -0.659678070E+01  0.249997092E+01
   C -0.288135473E+01  0.573255728E+01  0.250013468E+01
   C  0.320945122E+01  0.506111326E+01  0.249973145E+01
   C -0.653940192E+01 -0.188383556E+00  0.249986613E+01
   C  0.579630946E+01  0.271872361E+00  0.249997332E+01
   H -0.166959667E+02  0.287757269E+02  0.249147937E+01
   H  0.175742169E+02  0.281537755E+02  0.248835580E+01
   H -0.344470201E+02 -0.456907260E+01  0.248527421E+01
   H  0.342293140E+02 -0.361747586E+01  0.248617555E+01
  Xx -0.188794645E+04  0.109018240E+04  0.249956105E+01
    11
 # iter = 47500  time[fs]=47.50000
   N -0.334268173E+01 -0.666522322E+01  0.250002229E+01
   N  0.352927097E+01 -0.663050380E+01  0.249996845E+01
   C -0.289645215E+01  0.576196906E+01  0.250013471E+01
   C  0.322618841E+01  0.508625891E+01  0.249973137E+01
   C -0.657385697E+01 -0.190299689E+00  0.249986758E+01
   C  0.582613867E+01  0.271169391E+00  0.249997421E+01
   H -0.167909318E+02  0.289381673E+02  0.249142702E+01
   H  0.176744707E+02  0.283128142E+02  0.248828282E+01
   H -0.346408794E+02 -0.459756614E+01  0.248518320E+01
   H  0.344215128E+02 -0.364066147E+01  0.248609139E+01
  Xx -0.189802722E+04  0.109600348E+04  0.249955869E+01
    11
 # iter = 47750  time[fs]=47.75000
   N -0.335891959E+01 -0.669984666E+01  0.250002165E+01
   N  0.354727927E+01 -0.666424552E+01  0.249996609E+01
   C -0.291158367E+01  0.579136529E+01  0.250013480E+01
   C  0.324293756E+01  0.511141141E+01  0.249973054E+01
   C -0.660831793E+01 -0.192218037E+00  0.249986912E+01
   C  0.585597452E+01  0.270432920E+00  0.249997504E+01
   H -0.168859236E+02  0.291006520E+02  0.249137467E+01
   H  0.177747511E+02  0.284718973E+02  0.248820983E+01
   H -0.348347919E+02 -0.462607079E+01  0.248509220E+01
   H  0.346137649E+02 -0.366385818E+01  0.248600724E+01
  Xx -0.190810799E+04  0.110182455E+04  0.249955633E+01
    11
 # iter = 48000  time[fs]=48.00000
   N -0.337513828E+01 -0.673451568E+01  0.250002104E+01
   N  0.356523652E+01 -0.669801857E+01  0.249996408E+01
   C -0.292671862E+01  0.582080406E+01  0.250013409E+01
   C  0.325970425E+01  0.513659784E+01  0.249973001E+01
   C -0.664279990E+01 -0.194133933E+00  0.249987084E+01
   C  0.588584450E+01  0.269683509E+00  0.249997608E+01
   H -0.169809420E+02  0.292631811E+02  0.249132231E+01
   H  0.178750582E+02  0.286310249E+02  0.248813684E+01
   H -0.350287578E+02 -0.465458655E+01  0.248500120E+01
   H  0.348060703E+02 -0.368706599E+01  0.248592308E+01
  Xx -0.191818876E+04  0.110764562E+04  0.249955398E+01
    11
 # iter = 48250  time[fs]=48.25000
   N -0.339135494E+01 -0.676920664E+01  0.250002033E+01
   N  0.358313399E+01 -0.673182770E+01  0.249996199E+01
   C -0.294188001E+01  0.585025059E+01  0.250013440E+01
   C  0.327647462E+01  0.516179294E+01  0.249972975E+01
   C -0.667731902E+01 -0.196089194E+00  0.249987222E+01
   C  0.591572814E+01  0.268923870E+00  0.249997699E+01
   H -0.170759871E+02  0.294257546E+02  0.249126996E+01
   H  0.179753919E+02  0.287901968E+02  0.248806386E+01
   H -0.352227769E+02 -0.468311340E+01  0.248491019E+01
   H  0.349984289E+02 -0.371028490E+01  0.248583893E+01
  Xx -0.192826952E+04  0.111346670E+04  0.249955162E+01
    11
 # iter = 48500  time[fs]=48.50000
   N -0.340759657E+01 -0.680389265E+01  0.250001957E+01
   N  0.360098589E+01 -0.676566634E+01  0.249995975E+01
   C -0.295706539E+01  0.587969456E+01  0.250013422E+01
   C  0.329325240E+01  0.518701621E+01  0.249972865E+01
   C -0.671184892E+01 -0.198028737E+00  0.249987384E+01
   C  0.594564168E+01  0.268136933E+00  0.249997799E+01
   H -0.171710588E+02  0.295883726E+02  0.249121761E+01
   H  0.180757523E+02  0.289494132E+02  0.248799087E+01
   H -0.354168493E+02 -0.471165136E+01  0.248481919E+01
   H  0.351908409E+02 -0.373351492E+01  0.248575477E+01
  Xx -0.193835029E+04  0.111928777E+04  0.249954926E+01
    11
 # iter = 48750  time[fs]=48.75000
   N -0.342388115E+01 -0.683856292E+01  0.250001884E+01
   N  0.361881239E+01 -0.679951336E+01  0.249995768E+01
   C -0.297226064E+01  0.590919148E+01  0.250013378E+01
   C  0.331003606E+01  0.521227644E+01  0.249972829E+01
   C -0.674641786E+01 -0.200000393E+00  0.249987530E+01
   C  0.597559133E+01  0.267341453E+00  0.249997909E+01
   H -0.172661572E+02  0.297510349E+02  0.249116525E+01
   H  0.181761393E+02  0.291086740E+02  0.248791789E+01
   H -0.356109750E+02 -0.474020041E+01  0.248472819E+01
   H  0.353833061E+02 -0.375675604E+01  0.248567062E+01
  Xx -0.194843106E+04  0.112510885E+04  0.249954690E+01
    11
 # iter = 49000  time[fs]=49.00000
   N -0.344021088E+01 -0.687322895E+01  0.250001814E+01
   N  0.363663182E+01 -0.683334306E+01  0.249995591E+01
   C -0.298748484E+01  0.593867787E+01  0.250013375E+01
   C  0.332682527E+01  0.523754692E+01  0.249972779E+01
   C -0.678100565E+01 -0.201979127E+00  0.249987672E+01
   C  0.600555457E+01  0.266534996E+00  0.249998020E+01
   H -0.173612822E+02  0.299137417E+02  0.249111290E+01
   H  0.182765529E+02  0.292679791E+02  0.248784490E+01
   H -0.358051540E+02 -0.476876057E+01  0.248463719E+01
   H  0.355758247E+02 -0.378000826E+01  0.248558646E+01
  Xx -0.195851183E+04  0.113092992E+04  0.249954454E+01
    11
 # iter = 49250  time[fs]=49.25000
   N -0.345658233E+01 -0.690791059E+01  0.250001734E+01
   N  0.365446945E+01 -0.686714502E+01  0.249995407E+01
   C -0.300271545E+01  0.596819169E+01  0.250013314E+01
   C  0.334361959E+01  0.526285073E+01  0.249972686E+01
   C -0.681560263E+01 -0.203954206E+00  0.249987833E+01
   C  0.603554996E+01  0.265700954E+00  0.249998137E+01
   H -0.174564338E+02  0.300764929E+02  0.249106055E+01
   H  0.183769932E+02  0.294273287E+02  0.248777191E+01
   H -0.359993863E+02 -0.479733184E+01  0.248454618E+01
   H  0.357683965E+02 -0.380327158E+01  0.248550231E+01
  Xx -0.196859260E+04  0.113675100E+04  0.249954219E+01
    11
 # iter = 49500  time[fs]=49.50000
   N -0.347299435E+01 -0.694262487E+01  0.250001645E+01
   N  0.367235215E+01 -0.690094636E+01  0.249995199E+01
   C -0.301796036E+01  0.599774685E+01  0.250013306E+01
   C  0.336041797E+01  0.528817043E+01  0.249972673E+01
   C -0.685023761E+01 -0.205968537E+00  0.249987949E+01
   C  0.606555735E+01  0.264866171E+00  0.249998252E+01
   H -0.175516121E+02  0.302392885E+02  0.249100819E+01
   H  0.184774601E+02  0.295867227E+02  0.248769893E+01
   H -0.361936719E+02 -0.482591420E+01  0.248445518E+01
   H  0.359610216E+02 -0.382654601E+01  0.248541815E+01
  Xx -0.197867336E+04  0.114257207E+04  0.249953983E+01
    11
 # iter = 49750  time[fs]=49.75000
   N -0.348944260E+01 -0.697738153E+01  0.250001564E+01
   N  0.369029521E+01 -0.693478820E+01  0.249995011E+01
   C -0.303322391E+01  0.602728701E+01  0.250013263E+01
   C  0.337722541E+01  0.531349872E+01  0.249972601E+01
   C -0.688487456E+01 -0.207965791E+00  0.249988091E+01
   C  0.609558492E+01  0.264011991E+00  0.249998369E+01
   H -0.176468171E+02  0.304021284E+02  0.249095584E+01
   H  0.185779537E+02  0.297461612E+02  0.248762594E+01
   H -0.363880108E+02 -0.485450767E+01  0.248436418E+01
   H  0.361537000E+02 -0.384983129E+01  0.248533400E+01
  Xx -0.198875413E+04  0.114839315E+04  0.249953747E+01
    11
 # iter = 50000  time[fs]=50.00000
   N -0.350591169E+01 -0.701217248E+01  0.250001472E+01
   N  0.370830302E+01 -0.696867892E+01  0.249994866E+01
   C -0.304848286E+01  0.605686848E+01  0.250013216E+01
   C  0.339404338E+01  0.533885365E+01  0.249972529E+01
   C -0.691954155E+01 -0.209987407E+00  0.249988229E+01
   C  0.612563454E+01  0.263136185E+00  0.249998485E+01
   H -0.177420486E+02  0.305650128E+02  0.249090348E+01
   H  0.186784739E+02  0.299056440E+02  0.248755296E+01
   H -0.365824030E+02 -0.488311224E+01  0.248427317E+01
   H  0.363464317E+02 -0.387312663E+01  0.248524984E+01
  Xx -0.199883490E+04  0.115421422E+04  0.249953511E+01
