    11
 # iter =     0  time[fs]= 0.00000
   N -0.668466338E+00 -0.116463086E+01  0.250000000E+01
   N  0.668466338E+00 -0.116463086E+01  0.250000000E+01
   C -0.692277627E+00  0.124916000E+01  0.250000000E+01
   C  0.692277627E+00  0.124916000E+01  0.250000000E+01
   C -0.132315667E+01  0.433975300E-03  0.250000000E+01
   C  0.132315667E+01  0.433975300E-03  0.250000000E+01
   H -0.127180384E+01  0.216832769E+01  0.250000000E+01
   H  0.127180384E+01  0.216832769E+01  0.250000000E+01
   H -0.240769469E+01 -0.832907948E-01  0.250000000E+01
   H  0.240769469E+01 -0.832907948E-01  0.250000000E+01
  Xx  0.668466338E+00 -0.116463086E+01  0.200000000E+02
    11
 # iter =   250  time[fs]= 0.25000
   N -0.668479541E+00 -0.116465009E+01  0.249999711E+01
   N  0.668478589E+00 -0.116465011E+01  0.249999688E+01
   C -0.692272870E+00  0.124914051E+01  0.249999703E+01
   C  0.692271887E+00  0.124914059E+01  0.249999684E+01
   C -0.132313043E+01  0.429984049E-03  0.249999658E+01
   C  0.132312928E+01  0.430033062E-03  0.249999616E+01
   H -0.127181386E+01  0.216833742E+01  0.249997560E+01
   H  0.127181092E+01  0.216833735E+01  0.249997408E+01
   H -0.240778795E+01 -0.832939555E-01  0.249997365E+01
   H  0.240778423E+01 -0.832935207E-01  0.249997017E+01
  Xx  0.668473895E+00 -0.116464515E+01  0.835703865E+01
    11
 # iter =   500  time[fs]= 0.50000
   N -0.668863620E+00 -0.116479153E+01  0.250000478E+01
   N -0.310636795E+00  0.678418762E+00 -0.243240020E+01
   C -0.692276720E+00  0.124912256E+01  0.250002158E+01
   C  0.692223676E+00  0.124920550E+01  0.250002475E+01
   C -0.132317656E+01  0.564156842E-03  0.250002672E+01
   C  0.132325022E+01  0.735149127E-03  0.249999407E+01
   H -0.127205902E+01  0.216870956E+01  0.249996166E+01
   H  0.127208380E+01  0.216878860E+01  0.249996426E+01
   H -0.240860053E+01 -0.833103077E-01  0.249996840E+01
   H  0.240909036E+01 -0.831306200E-01  0.249993960E+01
  Xx  0.153149514E+01 -0.278906715E+01  0.151731828E+01
    11
 # iter =   750  time[fs]= 0.75000
   N -0.669386770E+00 -0.116561047E+01  0.250005070E+01
   N -0.228258253E+01  0.439037242E+01 -0.123615037E+02
   C -0.692379271E+00  0.124930303E+01  0.250005705E+01
   C  0.692173153E+00  0.124938591E+01  0.250005173E+01
   C -0.132344660E+01  0.962961607E-03  0.250005974E+01
   C  0.132354277E+01  0.107933135E-02  0.250001539E+01
   H -0.127358459E+01  0.217102614E+01  0.249996447E+01
   H  0.127431051E+01  0.217234619E+01  0.250006082E+01
   H -0.241390524E+01 -0.832484544E-01  0.250021666E+01
   H  0.241548698E+01 -0.834043975E-01  0.250011525E+01
  Xx  0.327089047E+01 -0.606300170E+01 -0.457603663E+00
    11
 # iter =  1000  time[fs]= 1.00000
   N -0.669770241E+00 -0.116685608E+01  0.250011621E+01
   N -0.425447144E+01  0.810222129E+01 -0.222903641E+02
   C -0.692687729E+00  0.124994432E+01  0.250017180E+01
   C  0.692485767E+00  0.124984818E+01  0.250010697E+01
   C -0.132406149E+01  0.113061216E-02  0.250007194E+01
   C  0.132384741E+01  0.102567810E-02  0.250007064E+01
   H -0.127680468E+01  0.217604990E+01  0.250007440E+01
   H  0.127802500E+01  0.217912097E+01  0.250035591E+01
   H -0.242345838E+01 -0.833510607E-01  0.250051619E+01
   H  0.242628045E+01 -0.844810686E-01  0.250030069E+01
  Xx  0.501075936E+01 -0.933778769E+01 -0.243290397E+01
    11
 # iter =  1250  time[fs]= 1.25000
   N -0.670103273E+00 -0.116847321E+01  0.250022390E+01
   N -0.622636681E+01  0.118140824E+02 -0.322192468E+02
   C -0.693147284E+00  0.125085517E+01  0.250027417E+01
   C  0.692842588E+00  0.125064757E+01  0.250018945E+01
   C -0.132496307E+01  0.106818142E-02  0.250010378E+01
   C  0.132440394E+01  0.482055832E-03  0.250018202E+01
   H -0.128198988E+01  0.218458998E+01  0.250030541E+01
   H  0.128338002E+01  0.218922350E+01  0.250054595E+01
   H -0.243647514E+01 -0.837962422E-01  0.250110383E+01
   H  0.244121248E+01 -0.855051964E-01  0.250032510E+01
  Xx  0.675083603E+01 -0.126128637E+02 -0.440836489E+01
    11
 # iter =  1500  time[fs]= 1.50000
   N -0.670436929E+00 -0.117049231E+01  0.250031291E+01
   N -0.819826702E+01  0.155259525E+02 -0.421481473E+02
   C -0.693948830E+00  0.125190031E+01  0.250041184E+01
   C  0.693487729E+00  0.125168886E+01  0.250027012E+01
   C -0.132611245E+01  0.886118970E-03  0.250015828E+01
   C  0.132503616E+01 -0.519380319E-03  0.250034889E+01
   H -0.128943060E+01  0.219690606E+01  0.250036530E+01
   H  0.129090882E+01  0.220320592E+01  0.250067296E+01
   H -0.245264852E+01 -0.846230068E-01  0.250191539E+01
   H  0.246047460E+01 -0.877484087E-01  0.250030555E+01
  Xx  0.849100056E+01 -0.158880880E+02 -0.638389478E+01
    11
 # iter =  1750  time[fs]= 1.75000
   N -0.670696174E+00 -0.117294299E+01  0.250039393E+01
   N -0.101701710E+02  0.192378281E+02 -0.520770576E+02
   C -0.694914896E+00  0.125317383E+01  0.250056835E+01
   C  0.694532131E+00  0.125280264E+01  0.250037534E+01
   C -0.132764635E+01  0.643362240E-03  0.250020758E+01
   C  0.132564419E+01 -0.167173795E-02  0.250052936E+01
   H -0.129927019E+01  0.221251129E+01  0.250050900E+01
   H  0.130020762E+01  0.222018177E+01  0.250102193E+01
   H -0.247209939E+01 -0.855887224E-01  0.250252085E+01
   H  0.248413079E+01 -0.909269764E-01  0.250019317E+01
  Xx  0.102312194E+02 -0.191634143E+02 -0.835947089E+01
    11
 # iter =  2000  time[fs]= 2.00000
   N -0.670796929E+00 -0.117595338E+01  0.250050999E+01
   N -0.121420757E+02  0.229497046E+02 -0.620059680E+02
   C -0.695834621E+00  0.125468046E+01  0.250070096E+01
   C  0.695782834E+00  0.125396574E+01  0.250047470E+01
   C -0.132957511E+01  0.335105444E-03  0.250024785E+01
   C  0.132640825E+01 -0.306765698E-02  0.250073325E+01
   H -0.131174134E+01  0.223163366E+01  0.250068141E+01
   H  0.131112008E+01  0.223999079E+01  0.250151119E+01
   H -0.249521349E+01 -0.864819810E-01  0.250334498E+01
   H  0.251069699E+01 -0.945668521E-01  0.250008486E+01
  Xx  0.119714756E+02 -0.224388105E+02 -0.103350790E+02
    11
 # iter =  2250  time[fs]= 2.25000
   N -0.670804957E+00 -0.117964185E+01  0.250062561E+01
   N -0.141139805E+02  0.266615811E+02 -0.719348783E+02
   C -0.696903043E+00  0.125622709E+01  0.250082200E+01
   C  0.697173978E+00  0.125547015E+01  0.250059172E+01
   C -0.133197119E+01  0.343425660E-03  0.250030067E+01
   C  0.132729920E+01 -0.464200766E-02  0.250096798E+01
   H -0.132579390E+01  0.225314664E+01  0.250087385E+01
   H  0.132318596E+01  0.226218348E+01  0.250185449E+01
   H -0.252089077E+01 -0.872046825E-01  0.250438815E+01
   H  0.254080906E+01 -0.991225440E-01  0.249937486E+01
  Xx  0.137117589E+02 -0.257142579E+02 -0.123107111E+02
    11
 # iter =  2500  time[fs]= 2.50000
   N -0.670653100E+00 -0.118381301E+01  0.250072550E+01
   N -0.160858853E+02  0.303734575E+02 -0.818637887E+02
   C -0.698271635E+00  0.125791296E+01  0.250094067E+01
   C  0.698800089E+00  0.125702993E+01  0.250071908E+01
   C -0.133468509E+01  0.315230742E-03  0.250032873E+01
   C  0.132831426E+01 -0.646432598E-02  0.250125563E+01
   H -0.134124678E+01  0.227716377E+01  0.250106259E+01
   H  0.133715304E+01  0.228751562E+01  0.250222789E+01
   H -0.254962294E+01 -0.876790402E-01  0.250546589E+01
   H  0.257354827E+01 -0.104535565E+00  0.249873489E+01
  Xx  0.154520628E+02 -0.289897441E+02 -0.142863615E+02
    11
 # iter =  2750  time[fs]= 2.75000
   N -0.670303823E+00 -0.118844225E+01  0.250083108E+01
   N -0.180577901E+02  0.340853340E+02 -0.917926990E+02
   C -0.699772329E+00  0.125986899E+01  0.250108400E+01
   C  0.700449842E+00  0.125892597E+01  0.250081923E+01
   C -0.133784207E+01  0.368862678E-03  0.250032672E+01
   C  0.132970522E+01 -0.869360391E-02  0.250154964E+01
   H -0.135776412E+01  0.230327582E+01  0.250161810E+01
   H  0.135243190E+01  0.231486957E+01  0.250270856E+01
   H -0.258051617E+01 -0.880535055E-01  0.250631455E+01
   H  0.260748403E+01 -0.110274997E+00  0.249813583E+01
  Xx  0.171923838E+02 -0.322652604E+02 -0.162620261E+02
    11
 # iter =  3000  time[fs]= 3.00000
   N -0.669860377E+00 -0.119351834E+01  0.250098280E+01
   N -0.200296948E+02  0.377972105E+02 -0.101721609E+03
   C -0.701426964E+00  0.126204721E+01  0.250122123E+01
   C  0.702198679E+00  0.126113576E+01  0.250090499E+01
   C -0.134142398E+01  0.409170629E-03  0.250031737E+01
   C  0.133151634E+01 -0.113872655E-01  0.250185570E+01
   H -0.137545345E+01  0.233163705E+01  0.250237895E+01
   H  0.136920923E+01  0.234434293E+01  0.250307599E+01
   H -0.261335400E+01 -0.885241223E-01  0.250715386E+01
   H  0.264232702E+01 -0.116340148E+00  0.249735677E+01
  Xx  0.189327170E+02 -0.355407983E+02 -0.182377014E+02
    11
 # iter =  3250  time[fs]= 3.25000
   N -0.669540449E+00 -0.119890741E+01  0.250114269E+01
   N -0.220015996E+02  0.415090870E+02 -0.111650520E+03
   C -0.703562868E+00  0.126451681E+01  0.250136082E+01
   C  0.704247693E+00  0.126375211E+01  0.250099419E+01
   C -0.134506855E+01  0.283141706E-03  0.250027780E+01
   C  0.133354619E+01 -0.144989281E-01  0.250217973E+01
   H -0.139373212E+01  0.236102755E+01  0.250328220E+01
   H  0.138713690E+01  0.237575558E+01  0.250345399E+01
   H -0.264867416E+01 -0.891795861E-01  0.250799102E+01
   H  0.267919768E+01 -0.123284410E+00  0.249669103E+01
  Xx  0.206730591E+02 -0.388163539E+02 -0.202133855E+02
    11
 # iter =  3500  time[fs]= 3.50000
   N -0.669150631E+00 -0.120458370E+01  0.250129655E+01
   N -0.239735044E+02  0.452209635E+02 -0.121579430E+03
   C -0.706134263E+00  0.126718610E+01  0.250149787E+01
   C  0.706649614E+00  0.126670965E+01  0.250110035E+01
   C -0.134895882E+01  0.947369901E-04  0.250024547E+01
   C  0.133571256E+01 -0.179439116E-01  0.250247081E+01
   H -0.141268162E+01  0.239132747E+01  0.250411287E+01
   H  0.140590357E+01  0.240853429E+01  0.250381958E+01
   H -0.268618283E+01 -0.898076581E-01  0.250867289E+01
   H  0.271825785E+01 -0.131071166E+00  0.249597265E+01
  Xx  0.224134101E+02 -0.420919272E+02 -0.221890785E+02
    11
 # iter =  3750  time[fs]= 3.75000
   N -0.668521309E+00 -0.121069735E+01  0.250147218E+01
   N -0.259454092E+02  0.489328400E+02 -0.131508340E+03
   C -0.708904721E+00  0.127008131E+01  0.250161318E+01
   C  0.709276516E+00  0.127002556E+01  0.250119484E+01
   C -0.135335301E+01 -0.361664754E-04  0.250022465E+01
   C  0.133815855E+01 -0.217602185E-01  0.250278174E+01
   H -0.143244167E+01  0.242289334E+01  0.250496306E+01
   H  0.142509909E+01  0.244237377E+01  0.250426715E+01
   H -0.272524347E+01 -0.903320737E-01  0.250945737E+01
   H  0.275844641E+01 -0.139251652E+00  0.249538032E+01
  Xx  0.241537700E+02 -0.453675184E+02 -0.241647804E+02
    11
 # iter =  4000  time[fs]= 4.00000
   N -0.667827712E+00 -0.121730080E+01  0.250163337E+01
   N -0.279173139E+02  0.526447164E+02 -0.141437251E+03
   C -0.711923209E+00  0.127321146E+01  0.250177325E+01
   C  0.712137666E+00  0.127348572E+01  0.250129360E+01
   C -0.135813467E+01 -0.368781547E-04  0.250019363E+01
   C  0.134087647E+01 -0.257764983E-01  0.250308150E+01
   H -0.145303444E+01  0.245575709E+01  0.250591290E+01
   H  0.144517665E+01  0.247757524E+01  0.250458375E+01
   H -0.276533878E+01 -0.909092827E-01  0.251005925E+01
   H  0.279952830E+01 -0.147740482E+00  0.249461720E+01
  Xx  0.258941387E+02 -0.486431273E+02 -0.261404911E+02
    11
 # iter =  4250  time[fs]= 4.25000
   N -0.667055042E+00 -0.122430439E+01  0.250182202E+01
   N -0.298892187E+02  0.563565929E+02 -0.151366161E+03
   C -0.715321766E+00  0.127644635E+01  0.250192150E+01
   C  0.715345096E+00  0.127716375E+01  0.250137207E+01
   C -0.136328317E+01  0.813256288E-04  0.250015700E+01
   C  0.134376860E+01 -0.300530106E-01  0.250339405E+01
   H -0.147464992E+01  0.249029640E+01  0.250685940E+01
   H  0.146600016E+01  0.251384520E+01  0.250485792E+01
   H -0.280635910E+01 -0.914683577E-01  0.251070223E+01
   H  0.284191506E+01 -0.157088245E+00  0.249390829E+01
  Xx  0.276345163E+02 -0.519187539E+02 -0.281162108E+02
    11
 # iter =  4500  time[fs]= 4.50000
   N -0.666120966E+00 -0.123174031E+01  0.250198525E+01
   N -0.318611235E+02  0.600684694E+02 -0.161295071E+03
   C -0.718898858E+00  0.127991212E+01  0.250205904E+01
   C  0.718649899E+00  0.128118667E+01  0.250147872E+01
   C -0.136877967E+01  0.307583212E-03  0.250014404E+01
   C  0.134691026E+01 -0.346591778E-01  0.250370600E+01
   H -0.149705549E+01  0.252611570E+01  0.250775725E+01
   H  0.148703940E+01  0.255035303E+01  0.250510265E+01
   H -0.284858254E+01 -0.919911070E-01  0.251135959E+01
   H  0.288513141E+01 -0.167018749E+00  0.249325979E+01
  Xx  0.293749029E+02 -0.551943962E+02 -0.300919376E+02
    11
 # iter =  4750  time[fs]= 4.75000
   N -0.665147858E+00 -0.123950469E+01  0.250213363E+01
   N -0.338330282E+02  0.637803459E+02 -0.171223982E+03
   C -0.722645662E+00  0.128366072E+01  0.250219968E+01
   C  0.722088686E+00  0.128540034E+01  0.250157683E+01
   C -0.137438156E+01  0.474346635E-03  0.250014713E+01
   C  0.135038546E+01 -0.393712833E-01  0.250401165E+01
   H -0.151988113E+01  0.256286336E+01  0.250867043E+01
   H  0.150848334E+01  0.258705253E+01  0.250524685E+01
   H -0.289314739E+01 -0.926448840E-01  0.251219451E+01
   H  0.292865608E+01 -0.177117655E+00  0.249258842E+01
  Xx  0.311152940E+02 -0.584700407E+02 -0.320676650E+02
    11
 # iter =  5000  time[fs]= 5.00000
   N -0.664289809E+00 -0.124767573E+01  0.250229050E+01
   N -0.358049330E+02  0.674922224E+02 -0.181152892E+03
   C -0.726766705E+00  0.128752232E+01  0.250234839E+01
   C  0.725905500E+00  0.128985781E+01  0.250170434E+01
   C -0.138018083E+01  0.763428834E-03  0.250014244E+01
   C  0.135408864E+01 -0.441504000E-01  0.250428755E+01
   H -0.154293215E+01  0.260000554E+01  0.250956544E+01
   H  0.153014967E+01  0.262399853E+01  0.250544464E+01
   H -0.293896432E+01 -0.935969399E-01  0.251295714E+01
   H  0.297285757E+01 -0.187714360E+00  0.249201626E+01
  Xx  0.328556851E+02 -0.617456852E+02 -0.340433925E+02
    11
 # iter =  5250  time[fs]= 5.25000
   N -0.663542455E+00 -0.125610961E+01  0.250243612E+01
   N -0.377768378E+02  0.712040989E+02 -0.191081803E+03
   C -0.731208239E+00  0.129152856E+01  0.250251601E+01
   C  0.730077207E+00  0.129460983E+01  0.250179741E+01
   C -0.138619518E+01  0.107559125E-02  0.250014337E+01
   C  0.135794986E+01 -0.490816519E-01  0.250456207E+01
   H -0.156617818E+01  0.263755898E+01  0.251049004E+01
   H  0.155193134E+01  0.266105781E+01  0.250548943E+01
   H -0.298565303E+01 -0.948869658E-01  0.251364101E+01
   H  0.301799632E+01 -0.198999409E+00  0.249159196E+01
  Xx  0.345960763E+02 -0.650213297E+02 -0.360191199E+02
    11
 # iter =  5500  time[fs]= 5.50000
   N -0.662779118E+00 -0.126462871E+01  0.250256723E+01
   N -0.397487426E+02  0.749159753E+02 -0.201010713E+03
   C -0.736019922E+00  0.129565565E+01  0.250268443E+01
   C  0.734596741E+00  0.129944409E+01  0.250187883E+01
   C -0.139232051E+01  0.134216445E-02  0.250016509E+01
   C  0.136206069E+01 -0.540705514E-01  0.250483218E+01
   H -0.158966830E+01  0.267546245E+01  0.251152070E+01
   H  0.157400847E+01  0.269854155E+01  0.250563242E+01
   H -0.303356207E+01 -0.963166054E-01  0.251424672E+01
   H  0.306322621E+01 -0.210615858E+00  0.249118817E+01
  Xx  0.363364674E+02 -0.682969742E+02 -0.379948474E+02
    11
 # iter =  5750  time[fs]= 5.75000
   N -0.661985530E+00 -0.127334371E+01  0.250272761E+01
   N -0.417206473E+02  0.786278518E+02 -0.210939623E+03
   C -0.741150292E+00  0.129991434E+01  0.250285419E+01
   C  0.739309263E+00  0.130446301E+01  0.250194300E+01
   C -0.139866863E+01  0.165231700E-02  0.250015847E+01
   C  0.136651171E+01 -0.592470402E-01  0.250510949E+01
   H -0.161349404E+01  0.271394473E+01  0.251268201E+01
   H  0.159626553E+01  0.273609452E+01  0.250582356E+01
   H -0.308243958E+01 -0.978124308E-01  0.251477191E+01
   H  0.310830184E+01 -0.222501361E+00  0.249066949E+01
  Xx  0.380768585E+02 -0.715726187E+02 -0.399705748E+02
    11
 # iter =  6000  time[fs]= 6.00000
   N -0.661165500E+00 -0.128243885E+01  0.250288182E+01
   N -0.436925521E+02  0.823397283E+02 -0.220868534E+03
   C -0.746453449E+00  0.130426713E+01  0.250302694E+01
   C  0.744214092E+00  0.130969650E+01  0.250200403E+01
   C -0.140529373E+01  0.224132286E-02  0.250012603E+01
   C  0.137119056E+01 -0.645338771E-01  0.250541809E+01
   H -0.163760538E+01  0.275281835E+01  0.251378331E+01
   H  0.161854634E+01  0.277378937E+01  0.250604019E+01
   H -0.313183150E+01 -0.995110330E-01  0.251527537E+01
   H  0.315353567E+01 -0.234677845E+00  0.249011993E+01
  Xx  0.398172497E+02 -0.748482632E+02 -0.419463022E+02
    11
 # iter =  6250  time[fs]= 6.25000
   N -0.660415342E+00 -0.129170153E+01  0.250301857E+01
   N -0.456644569E+02  0.860516048E+02 -0.230797444E+03
   C -0.752047615E+00  0.130866975E+01  0.250320589E+01
   C  0.749337946E+00  0.131505178E+01  0.250204682E+01
   C -0.141202683E+01  0.297263068E-02  0.250011455E+01
   C  0.137595953E+01 -0.699282300E-01  0.250574836E+01
   H -0.166166321E+01  0.279171722E+01  0.251496014E+01
   H  0.164126032E+01  0.281200499E+01  0.250627597E+01
   H -0.318201747E+01 -0.101472429E+00  0.251584293E+01
   H  0.319963912E+01 -0.247192810E+00  0.248961725E+01
  Xx  0.415576408E+02 -0.781239078E+02 -0.439220297E+02
    11
 # iter =  6500  time[fs]= 6.50000
   N -0.659659970E+00 -0.130110285E+01  0.250316598E+01
   N -0.476363617E+02  0.897634813E+02 -0.240726354E+03
   C -0.757848085E+00  0.131314912E+01  0.250337461E+01
   C  0.754638343E+00  0.132043132E+01  0.250210335E+01
   C -0.141891627E+01  0.384903881E-02  0.250009436E+01
   C  0.138080406E+01 -0.754412517E-01  0.250606743E+01
   H -0.168593721E+01  0.283071813E+01  0.251598320E+01
   H  0.166447697E+01  0.285116436E+01  0.250642421E+01
   H -0.323275330E+01 -0.103613440E+00  0.251644004E+01
   H  0.324669701E+01 -0.260069116E+00  0.248892362E+01
  Xx  0.432980319E+02 -0.813995523E+02 -0.458977571E+02
    11
 # iter =  6750  time[fs]= 6.75000
   N -0.658899615E+00 -0.131068101E+01  0.250326735E+01
   N -0.496082664E+02  0.934753578E+02 -0.250655265E+03
   C -0.763627888E+00  0.131769067E+01  0.250351989E+01
   C  0.759897192E+00  0.132602655E+01  0.250219122E+01
   C -0.142605073E+01  0.482887892E-02  0.250013193E+01
   C  0.138577437E+01 -0.810906685E-01  0.250637522E+01
   H -0.171059002E+01  0.287033421E+01  0.251691907E+01
   H  0.168787778E+01  0.289075482E+01  0.250666982E+01
   H -0.328358198E+01 -0.105889788E+00  0.251703622E+01
   H  0.329468898E+01 -0.273428752E+00  0.248833056E+01
  Xx  0.450384231E+02 -0.846751968E+02 -0.478734846E+02
    11
 # iter =  7000  time[fs]= 7.00000
   N -0.658069748E+00 -0.132040750E+01  0.250339515E+01
   N -0.515801712E+02  0.971872342E+02 -0.260584175E+03
   C -0.769430548E+00  0.132218786E+01  0.250364228E+01
   C  0.765219111E+00  0.133180749E+01  0.250228547E+01
   C -0.143345640E+01  0.586760586E-02  0.250016737E+01
   C  0.139089777E+01 -0.868440908E-01  0.250666562E+01
   H -0.173579573E+01  0.291105949E+01  0.251781451E+01
   H  0.171152805E+01  0.293051048E+01  0.250684548E+01
   H -0.333477776E+01 -0.108355404E+00  0.251760012E+01
   H  0.334306914E+01 -0.287195446E+00  0.248786402E+01
  Xx  0.467788142E+02 -0.879508413E+02 -0.498492120E+02
    11
 # iter =  7250  time[fs]= 7.25000
   N -0.657279924E+00 -0.133023721E+01  0.250352131E+01
   N -0.535520760E+02  0.100899111E+03 -0.270513085E+03
   C -0.775268462E+00  0.132672416E+01  0.250380048E+01
   C  0.770713143E+00  0.133768366E+01  0.250240349E+01
   C -0.144104563E+01  0.680648473E-02  0.250016722E+01
   C  0.139608989E+01 -0.925678364E-01  0.250691385E+01
   H -0.176168496E+01  0.295296910E+01  0.251876597E+01
   H  0.173540825E+01  0.297042491E+01  0.250690281E+01
   H -0.338659340E+01 -0.111066937E+00  0.251811783E+01
   H  0.339212119E+01 -0.301329143E+00  0.248743678E+01
  Xx  0.485192054E+02 -0.912264858E+02 -0.518249395E+02
    11
 # iter =  7500  time[fs]= 7.50000
   N -0.656483206E+00 -0.134005598E+01  0.250367371E+01
   N -0.555239808E+02  0.104610987E+03 -0.280441996E+03
   C -0.781249619E+00  0.133128634E+01  0.250394726E+01
   C  0.776425039E+00  0.134366717E+01  0.250253439E+01
   C -0.144884408E+01  0.769676299E-02  0.250018930E+01
   C  0.140136029E+01 -0.983374046E-01  0.250712492E+01
   H -0.178791825E+01  0.299545150E+01  0.251979655E+01
   H  0.175944527E+01  0.301043280E+01  0.250688377E+01
   H -0.343893691E+01 -0.113959568E+00  0.251870512E+01
   H  0.344212434E+01 -0.315902416E+00  0.248706150E+01
  Xx  0.502595965E+02 -0.945021303E+02 -0.538006669E+02
    11
 # iter =  7750  time[fs]= 7.75000
   N -0.655722187E+00 -0.134992342E+01  0.250383038E+01
   N -0.574958855E+02  0.108322864E+03 -0.290370906E+03
   C -0.787325865E+00  0.133592061E+01  0.250411466E+01
   C  0.782265893E+00  0.134974665E+01  0.250266205E+01
   C -0.145682508E+01  0.858492067E-02  0.250018370E+01
   C  0.140664791E+01 -0.104145396E+00  0.250732643E+01
   H -0.181430365E+01  0.303810695E+01  0.252075523E+01
   H  0.178358692E+01  0.305073961E+01  0.250693591E+01
   H -0.349172133E+01 -0.117008285E+00  0.251938274E+01
   H  0.349334626E+01 -0.330933862E+00  0.248681060E+01
  Xx  0.519999876E+02 -0.977777749E+02 -0.557763943E+02
    11
 # iter =  8000  time[fs]= 8.00000
   N -0.654988909E+00 -0.135981099E+01  0.250401604E+01
   N -0.594677903E+02  0.112034740E+03 -0.300299816E+03
   C -0.793428014E+00  0.134072565E+01  0.250425918E+01
   C  0.788201879E+00  0.135587919E+01  0.250280693E+01
   C -0.146487485E+01  0.935414987E-02  0.250014926E+01
   C  0.141197342E+01 -0.109959145E+00  0.250753067E+01
   H -0.184071798E+01  0.308080462E+01  0.252168768E+01
   H  0.180799134E+01  0.309133437E+01  0.250694588E+01
   H -0.354542775E+01 -0.120386307E+00  0.252000947E+01
   H  0.354549753E+01 -0.346288010E+00  0.248660430E+01
  Xx  0.537403788E+02 -0.101053419E+03 -0.577521218E+02
    11
 # iter =  8250  time[fs]= 8.25000
   N -0.654320375E+00 -0.136970994E+01  0.250416679E+01
   N -0.614396951E+02  0.115746617E+03 -0.310228727E+03
   C -0.799642713E+00  0.134563770E+01  0.250439786E+01
   C  0.794299267E+00  0.136202517E+01  0.250296593E+01
   C -0.147295137E+01  0.998516953E-02  0.250015649E+01
   C  0.141725073E+01 -0.115807274E+00  0.250771004E+01
   H -0.186724689E+01  0.312378298E+01  0.252266555E+01
   H  0.183276252E+01  0.313221817E+01  0.250703987E+01
   H -0.359993894E+01 -0.124015671E+00  0.252065516E+01
   H  0.359861759E+01 -0.361953124E+00  0.248635951E+01
  Xx  0.554807699E+02 -0.104329064E+03 -0.597278492E+02
    11
 # iter =  8500  time[fs]= 8.50000
   N -0.653700775E+00 -0.137964357E+01  0.250433148E+01
   N -0.634115999E+02  0.119458493E+03 -0.320157637E+03
   C -0.805918872E+00  0.135062749E+01  0.250450866E+01
   C  0.800472410E+00  0.136827110E+01  0.250316464E+01
   C -0.148107810E+01  0.105770571E-01  0.250014393E+01
   C  0.142249506E+01 -0.121689197E+00  0.250787642E+01
   H -0.189389069E+01  0.316695292E+01  0.252365849E+01
   H  0.185763222E+01  0.317335626E+01  0.250721006E+01
   H -0.365510048E+01 -0.127905220E+00  0.252127909E+01
   H  0.365292922E+01 -0.378046924E+00  0.248602229E+01
  Xx  0.572211610E+02 -0.107604708E+03 -0.617035767E+02
    11
 # iter =  8750  time[fs]= 8.75000
   N -0.653127838E+00 -0.138967080E+01  0.250453329E+01
   N -0.653835046E+02  0.123170370E+03 -0.330086547E+03
   C -0.812209966E+00  0.135562715E+01  0.250463975E+01
   C  0.806612881E+00  0.137459830E+01  0.250336099E+01
   C -0.148929886E+01  0.111805530E-01  0.250008982E+01
   C  0.142784957E+01 -0.127663936E+00  0.250802579E+01
   H -0.192068472E+01  0.321038823E+01  0.252466336E+01
   H  0.188281896E+01  0.321503723E+01  0.250735326E+01
   H -0.371072322E+01 -0.131975907E+00  0.252185546E+01
   H  0.370792877E+01 -0.394484860E+00  0.248560183E+01
  Xx  0.589615522E+02 -0.110880353E+03 -0.636793041E+02
    11
 # iter =  9000  time[fs]= 9.00000
   N -0.652618555E+00 -0.139978495E+01  0.250471697E+01
   N -0.673554094E+02  0.126882246E+03 -0.340015458E+03
   C -0.818490748E+00  0.136066081E+01  0.250479912E+01
   C  0.812715083E+00  0.138090991E+01  0.250351892E+01
   C -0.149757320E+01  0.118344326E-01  0.250003139E+01
   C  0.143339300E+01 -0.133592245E+00  0.250822822E+01
   H -0.194764350E+01  0.325409357E+01  0.252569346E+01
   H  0.190829239E+01  0.325699926E+01  0.250748873E+01
   H -0.376704512E+01 -0.136232324E+00  0.252242400E+01
   H  0.376352327E+01 -0.411289973E+00  0.248522084E+01
  Xx  0.607019433E+02 -0.114155997E+03 -0.656550316E+02
    11
 # iter =  9250  time[fs]= 9.25000
   N -0.652100191E+00 -0.140993854E+01  0.250490672E+01
   N -0.693273142E+02  0.130594123E+03 -0.349944368E+03
   C -0.824757365E+00  0.136572970E+01  0.250496450E+01
   C  0.818732391E+00  0.138711988E+01  0.250370084E+01
   C -0.150588998E+01  0.124689863E-01  0.249995674E+01
   C  0.143905369E+01 -0.139446673E+00  0.250841863E+01
   H -0.197475758E+01  0.329805983E+01  0.252661743E+01
   H  0.193416881E+01  0.329955182E+01  0.250760839E+01
   H -0.382425014E+01 -0.140767560E+00  0.252296825E+01
   H  0.381956499E+01 -0.428337803E+00  0.248478999E+01
  Xx  0.624423344E+02 -0.117431642E+03 -0.676307590E+02
    11
 # iter =  9500  time[fs]= 9.50000
   N -0.651611646E+00 -0.142019684E+01  0.250509233E+01
   N -0.712992190E+02  0.134305999E+03 -0.359873278E+03
   C -0.830983755E+00  0.137081820E+01  0.250514648E+01
   C  0.824745139E+00  0.139326984E+01  0.250390763E+01
   C -0.151426585E+01  0.131126922E-01  0.249986822E+01
   C  0.144469276E+01 -0.145267870E+00  0.250857672E+01
   H -0.200205415E+01  0.334238496E+01  0.252753349E+01
   H  0.196036313E+01  0.334269716E+01  0.250773569E+01
   H -0.388210855E+01 -0.145575603E+00  0.252345445E+01
   H  0.387631224E+01 -0.445741236E+00  0.248427204E+01
  Xx  0.641827256E+02 -0.120707286E+03 -0.696064864E+02
    11
 # iter =  9750  time[fs]= 9.75000
   N -0.651200936E+00 -0.143051995E+01  0.250526123E+01
   N -0.732711237E+02  0.138017876E+03 -0.369802189E+03
   C -0.837234854E+00  0.137593193E+01  0.250529075E+01
   C  0.830819252E+00  0.139956956E+01  0.250412987E+01
   C -0.152260506E+01  0.137245620E-01  0.249982636E+01
   C  0.145027564E+01 -0.151188402E+00  0.250872419E+01
   H -0.202955781E+01  0.338706975E+01  0.252844466E+01
   H  0.198677779E+01  0.338608651E+01  0.250779512E+01
   H -0.394058785E+01 -0.150663530E+00  0.252399601E+01
   H  0.393414440E+01 -0.463480324E+00  0.248374725E+01
  Xx  0.659231167E+02 -0.123982931E+03 -0.715822139E+02
    11
 # iter = 10000  time[fs]=10.00000
   N -0.650833982E+00 -0.144084339E+01  0.250542632E+01
   N -0.752430285E+02  0.141729752E+03 -0.379731099E+03
   C -0.843473030E+00  0.138105669E+01  0.250542756E+01
   C  0.836881503E+00  0.140588367E+01  0.250432838E+01
   C -0.153092241E+01  0.142150323E-01  0.249977909E+01
   C  0.145578510E+01 -0.157155622E+00  0.250891824E+01
   H -0.205719342E+01  0.343204184E+01  0.252933872E+01
   H  0.201360755E+01  0.343012867E+01  0.250784752E+01
   H -0.399959215E+01 -0.155947754E+00  0.252455775E+01
   H  0.399295395E+01 -0.481615476E+00  0.248326454E+01
  Xx  0.676635079E+02 -0.127258575E+03 -0.735579413E+02
    11
 # iter = 10250  time[fs]=10.25000
   N -0.650514134E+00 -0.145116013E+01  0.250556397E+01
   N -0.772149333E+02  0.145441629E+03 -0.389660009E+03
   C -0.849762285E+00  0.138618245E+01  0.250558485E+01
   C  0.842877031E+00  0.141218333E+01  0.250453534E+01
   C -0.153919803E+01  0.146648035E-01  0.249973748E+01
   C  0.146136953E+01 -0.163164642E+00  0.250905859E+01
   H -0.208503132E+01  0.347727510E+01  0.253024642E+01
   H  0.204085546E+01  0.347480536E+01  0.250790969E+01
   H -0.405922974E+01 -0.161489154E+00  0.252513814E+01
   H  0.405251096E+01 -0.499995599E+00  0.248281371E+01
  Xx  0.694038990E+02 -0.130534220E+03 -0.755336688E+02
    11
 # iter = 10500  time[fs]=10.50000
   N -0.650286897E+00 -0.146146782E+01  0.250568895E+01
   N -0.791868381E+02  0.149153505E+03 -0.399588920E+03
   C -0.856015173E+00  0.139132975E+01  0.250570930E+01
   C  0.848761562E+00  0.141848356E+01  0.250471539E+01
   C -0.154749144E+01  0.150648004E-01  0.249973860E+01
   C  0.146713737E+01 -0.169193060E+00  0.250923234E+01
   H -0.211302989E+01  0.352286347E+01  0.253108602E+01
   H  0.206849573E+01  0.351995601E+01  0.250796556E+01
   H -0.411953886E+01 -0.167242991E+00  0.252572853E+01
   H  0.411276233E+01 -0.518723905E+00  0.248241196E+01
  Xx  0.711442901E+02 -0.133809865E+03 -0.775093962E+02
    11
 # iter = 10750  time[fs]=10.75000
   N -0.650139035E+00 -0.147181321E+01  0.250581517E+01
   N -0.811587428E+02  0.152865382E+03 -0.409517830E+03
   C -0.862267426E+00  0.139646462E+01  0.250587502E+01
   C  0.854696123E+00  0.142475238E+01  0.250486844E+01
   C -0.155574693E+01  0.153933925E-01  0.249974051E+01
   C  0.147286508E+01 -0.175186995E+00  0.250939889E+01
   H -0.214133816E+01  0.356890931E+01  0.253188628E+01
   H  0.209651634E+01  0.356558027E+01  0.250799301E+01
   H -0.418065855E+01 -0.173258214E+00  0.252628791E+01
   H  0.417370164E+01 -0.537760610E+00  0.248202392E+01
  Xx  0.728846813E+02 -0.137085509E+03 -0.794851236E+02
    11
 # iter = 11000  time[fs]=11.00000
   N -0.650039741E+00 -0.148220528E+01  0.250595135E+01
   N -0.831306476E+02  0.156577258E+03 -0.419446741E+03
   C -0.868456246E+00  0.140162258E+01  0.250606980E+01
   C  0.860665832E+00  0.143100040E+01  0.250501635E+01
   C -0.156391761E+01  0.156451710E-01  0.249969232E+01
   C  0.147849523E+01 -0.181131669E+00  0.250954481E+01
   H -0.216993974E+01  0.361559814E+01  0.253274154E+01
   H  0.212475641E+01  0.361158283E+01  0.250806451E+01
   H -0.424265416E+01 -0.179570322E+00  0.252680530E+01
   H  0.423546267E+01 -0.557061659E+00  0.248161643E+01
  Xx  0.746250724E+02 -0.140361154E+03 -0.814608511E+02
    11
 # iter = 11250  time[fs]=11.25000
   N -0.650010418E+00 -0.149261205E+01  0.250607105E+01
   N -0.851025524E+02  0.160289134E+03 -0.429375651E+03
   C -0.874539754E+00  0.140685646E+01  0.250627395E+01
   C  0.866532883E+00  0.143723843E+01  0.250516694E+01
   C -0.157208773E+01  0.157764820E-01  0.249963274E+01
   C  0.148410425E+01 -0.187040504E+00  0.250973601E+01
   H -0.219879856E+01  0.366278974E+01  0.253366755E+01
   H  0.215326152E+01  0.365790993E+01  0.250818917E+01
   H -0.430540427E+01 -0.186139827E+00  0.252728962E+01
   H  0.429819893E+01 -0.576707592E+00  0.248120362E+01
  Xx  0.763654635E+02 -0.143636798E+03 -0.834365785E+02
    11
 # iter = 11500  time[fs]=11.50000
   N -0.650050749E+00 -0.150301083E+01  0.250615362E+01
   N -0.870744572E+02  0.164001011E+03 -0.439304561E+03
   C -0.880583700E+00  0.141219151E+01  0.250648921E+01
   C  0.872340177E+00  0.144336190E+01  0.250530794E+01
   C -0.158018415E+01  0.157668329E-01  0.249960435E+01
   C  0.148969109E+01 -0.192892796E+00  0.250994131E+01
   H -0.222787479E+01  0.371029096E+01  0.253460919E+01
   H  0.218215427E+01  0.370487436E+01  0.250829845E+01
   H -0.436895748E+01 -0.192942651E+00  0.252775284E+01
   H  0.436178597E+01 -0.596698032E+00  0.248073868E+01
  Xx  0.781058547E+02 -0.146912443E+03 -0.854123060E+02
    11
 # iter = 11750  time[fs]=11.75000
   N -0.650198671E+00 -0.151336619E+01  0.250622746E+01
   N -0.890463619E+02  0.167712887E+03 -0.449233472E+03
   C -0.886612601E+00  0.141760168E+01  0.250667431E+01
   C  0.878134763E+00  0.144934046E+01  0.250543915E+01
   C -0.158816094E+01  0.156748303E-01  0.249957396E+01
   C  0.149523941E+01 -0.198661529E+00  0.251014028E+01
   H -0.225707938E+01  0.375803850E+01  0.253551322E+01
   H  0.221150372E+01  0.375256878E+01  0.250837123E+01
   H -0.443346712E+01 -0.199938252E+00  0.252825830E+01
   H  0.442615104E+01 -0.616983000E+00  0.248025802E+01
  Xx  0.798462458E+02 -0.150188087E+03 -0.873880334E+02
    11
 # iter = 12000  time[fs]=12.00000
   N -0.650481306E+00 -0.152361174E+01  0.250631679E+01
   N -0.910182667E+02  0.171424764E+03 -0.459162382E+03
   C -0.892583871E+00  0.142304845E+01  0.250683629E+01
   C  0.883864568E+00  0.145522041E+01  0.250557714E+01
   C -0.159604885E+01  0.154123233E-01  0.249952742E+01
   C  0.150079642E+01 -0.204382345E+00  0.251036634E+01
   H -0.228652404E+01  0.380618268E+01  0.253642906E+01
   H  0.224132610E+01  0.380099874E+01  0.250842833E+01
   H -0.449874270E+01 -0.207193660E+00  0.252877954E+01
   H  0.449133814E+01 -0.637618490E+00  0.247973193E+01
  Xx  0.815866369E+02 -0.153463732E+03 -0.893637609E+02
    11
 # iter = 12250  time[fs]=12.25000
   N -0.650865239E+00 -0.153379945E+01  0.250639487E+01
   N -0.929901715E+02  0.175136640E+03 -0.469091292E+03
   C -0.898491920E+00  0.142845585E+01  0.250701268E+01
   C  0.889536332E+00  0.146110419E+01  0.250571068E+01
   C -0.160385419E+01  0.150637340E-01  0.249950258E+01
   C  0.150629768E+01 -0.210067637E+00  0.251057557E+01
   H -0.231624271E+01  0.385489998E+01  0.253735885E+01
   H  0.227147278E+01  0.384987723E+01  0.250847970E+01
   H -0.456464728E+01 -0.214672235E+00  0.252932180E+01
   H  0.455735970E+01 -0.658535529E+00  0.247916200E+01
  Xx  0.833270281E+02 -0.156739376E+03 -0.913394883E+02
    11
 # iter = 12500  time[fs]=12.50000
   N -0.651305507E+00 -0.154388728E+01  0.250646813E+01
   N -0.949620763E+02  0.178848517E+03 -0.479020203E+03
   C -0.904402231E+00  0.143376544E+01  0.250717098E+01
   C  0.895288259E+00  0.146695560E+01  0.250589548E+01
   C -0.161158430E+01  0.147113624E-01  0.249947279E+01
   C  0.151169996E+01 -0.215695039E+00  0.251074392E+01
   H -0.234633073E+01  0.390424191E+01  0.253824846E+01
   H  0.230187869E+01  0.389906646E+01  0.250853601E+01
   H -0.463123992E+01 -0.222403138E+00  0.252988946E+01
   H  0.462413530E+01 -0.679698912E+00  0.247861506E+01
  Xx  0.850674192E+02 -0.160015021E+03 -0.933152157E+02
    11
 # iter = 12750  time[fs]=12.75000
   N -0.651803121E+00 -0.155385344E+01  0.250653163E+01
   N -0.969339810E+02  0.182560393E+03 -0.488949113E+03
   C -0.910364625E+00  0.143897760E+01  0.250734263E+01
   C  0.901110710E+00  0.147273994E+01  0.250608033E+01
   C -0.161923194E+01  0.142981436E-01  0.249942128E+01
   C  0.151704414E+01 -0.221237507E+00  0.251091827E+01
   H -0.237682129E+01  0.395428760E+01  0.253912337E+01
   H  0.233257856E+01  0.394865706E+01  0.250860212E+01
   H -0.469854898E+01 -0.230345631E+00  0.253042765E+01
   H  0.469159805E+01 -0.701122029E+00  0.247804514E+01
  Xx  0.868078104E+02 -0.163290665E+03 -0.952909432E+02
    11
 # iter = 13000  time[fs]=13.00000
   N -0.652393023E+00 -0.156375733E+01  0.250659447E+01
   N -0.989058858E+02  0.186272270E+03 -0.498878023E+03
   C -0.916264869E+00  0.144411067E+01  0.250749731E+01
   C  0.906850637E+00  0.147846547E+01  0.250621204E+01
   C -0.162676345E+01  0.139131170E-01  0.249938999E+01
   C  0.152239906E+01 -0.226765524E+00  0.251113253E+01
   H -0.240768324E+01  0.400496962E+01  0.253997611E+01
   H  0.236358897E+01  0.399872299E+01  0.250866748E+01
   H -0.476660265E+01 -0.238500359E+00  0.253095007E+01
   H  0.475978276E+01 -0.722871957E+00  0.247746434E+01
  Xx  0.885482015E+02 -0.166566310E+03 -0.972666706E+02
    11
 # iter = 13250  time[fs]=13.25000
   N -0.653061785E+00 -0.157360123E+01  0.250664279E+01
   N -0.100877791E+03  0.189984146E+03 -0.508806934E+03
   C -0.922077896E+00  0.144924585E+01  0.250768961E+01
   C  0.912454371E+00  0.148404161E+01  0.250633316E+01
   C -0.163425886E+01  0.135254339E-01  0.249939709E+01
   C  0.152773929E+01 -0.232208808E+00  0.251132822E+01
   H -0.243888134E+01  0.405611670E+01  0.254084427E+01
   H  0.239500748E+01  0.404941070E+01  0.250873569E+01
   H -0.483532268E+01 -0.246852665E+00  0.253149376E+01
   H  0.482868887E+01 -0.744873598E+00  0.247690779E+01
  Xx  0.902885926E+02 -0.169841954E+03 -0.992423981E+02
    11
 # iter = 13500  time[fs]=13.50000
   N -0.653763867E+00 -0.158340555E+01  0.250668246E+01
   N -0.102849695E+03  0.193696023E+03 -0.518735844E+03
   C -0.927824947E+00  0.145431882E+01  0.250786247E+01
   C  0.918000042E+00  0.148948802E+01  0.250651251E+01
   C -0.164170833E+01  0.131907751E-01  0.249941077E+01
   C  0.153302497E+01 -0.237536236E+00  0.251148534E+01
   H -0.247040189E+01  0.410771431E+01  0.254172451E+01
   H  0.242680328E+01  0.410071892E+01  0.250882711E+01
   H -0.490473087E+01 -0.255365862E+00  0.253205585E+01
   H  0.489823405E+01 -0.767164451E+00  0.247634317E+01
  Xx  0.920289838E+02 -0.173117599E+03 -0.101218126E+03
    11
 # iter = 13750  time[fs]=13.75000
   N -0.654526154E+00 -0.159312033E+01  0.250673950E+01
   N -0.104821600E+03  0.197407899E+03 -0.528664754E+03
   C -0.933550556E+00  0.145930007E+01  0.250800117E+01
   C  0.923504403E+00  0.149486176E+01  0.250670426E+01
   C -0.164902172E+01  0.128963603E-01  0.249938862E+01
   C  0.153820420E+01 -0.242806476E+00  0.251162218E+01
   H -0.250217184E+01  0.415967076E+01  0.254257295E+01
   H  0.245894164E+01  0.415252593E+01  0.250891621E+01
   H -0.497486491E+01 -0.264088129E+00  0.253258040E+01
   H  0.496842203E+01 -0.789710689E+00  0.247573190E+01
  Xx  0.937693749E+02 -0.176393243E+03 -0.103193853E+03
    11
 # iter = 14000  time[fs]=14.00000
   N -0.655391906E+00 -0.160273849E+01  0.250679518E+01
   N -0.106793505E+03  0.201119776E+03 -0.538593665E+03
   C -0.939219392E+00  0.146420604E+01  0.250815275E+01
   C  0.928994820E+00  0.150019302E+01  0.250686773E+01
   C -0.165619204E+01  0.125363782E-01  0.249937353E+01
   C  0.154328237E+01 -0.248008041E+00  0.251175031E+01
   H -0.253421546E+01  0.421212339E+01  0.254344699E+01
   H  0.249136914E+01  0.420475656E+01  0.250899145E+01
   H -0.504567735E+01 -0.272995634E+00  0.253310036E+01
   H  0.503929337E+01 -0.812490855E+00  0.247512124E+01
  Xx  0.955097660E+02 -0.179668888E+03 -0.105169580E+03
    11
 # iter = 14250  time[fs]=14.25000
   N -0.656342711E+00 -0.161224352E+01  0.250683694E+01
   N -0.108765410E+03  0.204831652E+03 -0.548522575E+03
   C -0.944913208E+00  0.146905941E+01  0.250832039E+01
   C  0.934520555E+00  0.150540007E+01  0.250703170E+01
   C -0.166323294E+01  0.121205815E-01  0.249936358E+01
   C  0.154826924E+01 -0.253119694E+00  0.251189887E+01
   H -0.256655729E+01  0.426511933E+01  0.254436128E+01
   H  0.252407941E+01  0.425745488E+01  0.250908480E+01
   H -0.511714511E+01 -0.282107053E+00  0.253364754E+01
   H  0.511077478E+01 -0.835538238E+00  0.247451443E+01
  Xx  0.972501572E+02 -0.182944532E+03 -0.107145308E+03
    11
 # iter = 14500  time[fs]=14.50000
   N -0.657335441E+00 -0.162170778E+01  0.250684392E+01
   N -0.110737314E+03  0.208543529E+03 -0.558451485E+03
   C -0.950594735E+00  0.147382421E+01  0.250848429E+01
   C  0.939960951E+00  0.151050028E+01  0.250715605E+01
   C -0.167017550E+01  0.117366133E-01  0.249941316E+01
   C  0.155323314E+01 -0.258127933E+00  0.251207519E+01
   H -0.259927862E+01  0.431864098E+01  0.254527790E+01
   H  0.255715824E+01  0.431067250E+01  0.250917869E+01
   H -0.518925059E+01 -0.291439118E+00  0.253418355E+01
   H  0.518281040E+01 -0.858819536E+00  0.247385154E+01
  Xx  0.989905483E+02 -0.186220177E+03 -0.109121035E+03
    11
 # iter = 14750  time[fs]=14.75000
   N -0.658371459E+00 -0.163113498E+01  0.250684831E+01
   N -0.112709219E+03  0.212255405E+03 -0.568380396E+03
   C -0.956178305E+00  0.147852355E+01  0.250858916E+01
   C  0.945319752E+00  0.151545904E+01  0.250727709E+01
   C -0.167703852E+01  0.113580269E-01  0.249944752E+01
   C  0.155815540E+01 -0.263088075E+00  0.251226628E+01
   H -0.263230947E+01  0.437270991E+01  0.254617976E+01
   H  0.259060082E+01  0.436446290E+01  0.250924968E+01
   H -0.526192585E+01 -0.300916236E+00  0.253472134E+01
   H  0.525537244E+01 -0.882316429E+00  0.247319561E+01
  Xx  0.100730939E+03 -0.189495821E+03 -0.111096763E+03
    11
 # iter = 15000  time[fs]=15.00000
   N -0.659443785E+00 -0.164054826E+01  0.250685332E+01
   N -0.114681124E+03  0.215967282E+03 -0.578309306E+03
   C -0.961703220E+00  0.148314489E+01  0.250867548E+01
   C  0.950536745E+00  0.152030783E+01  0.250747684E+01
   C -0.168379532E+01  0.110752928E-01  0.249947049E+01
   C  0.156300293E+01 -0.267992827E+00  0.251242534E+01
   H -0.266565065E+01  0.442725786E+01  0.254710075E+01
   H  0.262442408E+01  0.441881167E+01  0.250932554E+01
   H -0.533524022E+01 -0.310575121E+00  0.253528934E+01
   H  0.532849688E+01 -0.906060497E+00  0.247256878E+01
  Xx  0.102471331E+03 -0.192771466E+03 -0.113072490E+03
    11
 # iter = 15250  time[fs]=15.25000
   N -0.660542321E+00 -0.165002561E+01  0.250683759E+01
   N -0.116653029E+03  0.219679158E+03 -0.588238217E+03
   C -0.967138125E+00  0.148763540E+01  0.250879894E+01
   C  0.955680462E+00  0.152509929E+01  0.250767939E+01
   C -0.169049625E+01  0.108795092E-01  0.249951860E+01
   C  0.156772206E+01 -0.272863952E+00  0.251256612E+01
   H -0.269931130E+01  0.448233470E+01  0.254804297E+01
   H  0.265859469E+01  0.447362524E+01  0.250942982E+01
   H -0.540912084E+01 -0.320409466E+00  0.253586347E+01
   H  0.540223363E+01 -0.930060536E+00  0.247192124E+01
  Xx  0.104211722E+03 -0.196047110E+03 -0.115048218E+03
    11
 # iter = 15500  time[fs]=15.50000
   N -0.661678174E+00 -0.165951635E+01  0.250682237E+01
   N -0.118624934E+03  0.223391035E+03 -0.598167127E+03
   C -0.972438601E+00  0.149202134E+01  0.250894960E+01
   C  0.960733542E+00  0.152989257E+01  0.250782541E+01
   C -0.169713576E+01  0.107711507E-01  0.249952109E+01
   C  0.157236155E+01 -0.277715719E+00  0.251274432E+01
   H -0.273326770E+01  0.453791901E+01  0.254899169E+01
   H  0.269302456E+01  0.452887020E+01  0.250952858E+01
   H -0.548359434E+01 -0.330415790E+00  0.253644788E+01
   H  0.547647784E+01 -0.954242021E+00  0.247127457E+01
  Xx  0.105952113E+03 -0.199322755E+03 -0.117023945E+03
    11
 # iter = 15750  time[fs]=15.75000
   N -0.662826274E+00 -0.166903569E+01  0.250682278E+01
   N -0.120596838E+03  0.227102911E+03 -0.608096037E+03
   C -0.977675713E+00  0.149628425E+01  0.250911167E+01
   C  0.965699253E+00  0.153460108E+01  0.250793890E+01
   C -0.170370141E+01  0.107113790E-01  0.249949908E+01
   C  0.157690459E+01 -0.282510435E+00  0.251291456E+01
   H -0.276752765E+01  0.459392846E+01  0.254995854E+01
   H  0.272778888E+01  0.458458607E+01  0.250960695E+01
   H -0.555860985E+01 -0.340583492E+00  0.253704673E+01
   H  0.555123355E+01 -0.978641546E+00  0.247063931E+01
  Xx  0.107692504E+03 -0.202598399E+03 -0.118999672E+03
    11
 # iter = 16000  time[fs]=16.00000
   N -0.664032030E+00 -0.167853342E+01  0.250680289E+01
   N -0.122568743E+03  0.230814788E+03 -0.618024948E+03
   C -0.982892119E+00  0.150045284E+01  0.250928387E+01
   C  0.970594955E+00  0.153919435E+01  0.250805400E+01
   C -0.171013846E+01  0.106481158E-01  0.249948487E+01
   C  0.158140517E+01 -0.287219251E+00  0.251312593E+01
   H -0.280206100E+01  0.465042829E+01  0.255095505E+01
   H  0.276284005E+01  0.464076155E+01  0.250968504E+01
   H -0.563417918E+01 -0.350949363E+00  0.253763898E+01
   H  0.562647574E+01 -0.100323874E+01  0.247000187E+01
  Xx  0.109432895E+03 -0.205874044E+03 -0.120975400E+03
    11
 # iter = 16250  time[fs]=16.25000
   N -0.665334436E+00 -0.168798084E+01  0.250677535E+01
   N -0.124540648E+03  0.234526664E+03 -0.627953858E+03
   C -0.988094719E+00  0.150461538E+01  0.250945623E+01
   C  0.975409148E+00  0.154360875E+01  0.250816557E+01
   C -0.171643830E+01  0.104851572E-01  0.249948901E+01
   C  0.158590633E+01 -0.291847150E+00  0.251332493E+01
   H -0.283685382E+01  0.470737033E+01  0.255193485E+01
   H  0.279820238E+01  0.469740950E+01  0.250976176E+01
   H -0.571027781E+01 -0.361486288E+00  0.253821269E+01
   H  0.570223141E+01 -0.102805442E+01  0.246936034E+01
  Xx  0.111173286E+03 -0.209149688E+03 -0.122951127E+03
    11
 # iter = 16500  time[fs]=16.50000
   N -0.666719348E+00 -0.169742932E+01  0.250675678E+01
   N -0.126512553E+03  0.238238541E+03 -0.637882768E+03
   C -0.993272265E+00  0.150870310E+01  0.250963431E+01
   C  0.980126591E+00  0.154796001E+01  0.250825593E+01
   C -0.172256834E+01  0.103858364E-01  0.249946775E+01
   C  0.159034580E+01 -0.296447723E+00  0.251348611E+01
   H -0.287189810E+01  0.476471944E+01  0.255289078E+01
   H  0.283387390E+01  0.475451333E+01  0.250981784E+01
   H -0.578689685E+01 -0.372158776E+00  0.253879042E+01
   H  0.577845433E+01 -0.105306496E+01  0.246872752E+01
  Xx  0.112913677E+03 -0.212425333E+03 -0.124926855E+03
    11
 # iter = 16750  time[fs]=16.75000
   N -0.668173176E+00 -0.170690708E+01  0.250673391E+01
   N -0.128484457E+03  0.241950417E+03 -0.647811679E+03
   C -0.998414861E+00  0.151262964E+01  0.250984905E+01
   C  0.984796801E+00  0.155225432E+01  0.250838454E+01
   C -0.172861573E+01  0.103309268E-01  0.249940777E+01
   C  0.159470743E+01 -0.301003525E+00  0.251363541E+01
   H -0.290727056E+01  0.482254200E+01  0.255388071E+01
   H  0.286983869E+01  0.481211268E+01  0.250987347E+01
   H -0.586398957E+01 -0.383023182E+00  0.253936877E+01
   H  0.585518085E+01 -0.107829133E+01  0.246808150E+01
  Xx  0.114654069E+03 -0.215700977E+03 -0.126902582E+03
    11
 # iter = 17000  time[fs]=17.00000
   N -0.669641106E+00 -0.171636423E+01  0.250669552E+01
   N -0.130456362E+03  0.245662294E+03 -0.657740589E+03
   C -0.100350274E+01  0.151646530E+01  0.251008892E+01
   C  0.989417183E+00  0.155642880E+01  0.250849315E+01
   C -0.173458150E+01  0.103018756E-01  0.249934421E+01
   C  0.159897418E+01 -0.305486302E+00  0.251379800E+01
   H -0.294288621E+01  0.488078097E+01  0.255487011E+01
   H  0.290611095E+01  0.487013596E+01  0.250993139E+01
   H -0.594152233E+01 -0.394033853E+00  0.253994081E+01
   H  0.593232845E+01 -0.110369299E+01  0.246742752E+01
  Xx  0.116394460E+03 -0.218976622E+03 -0.128878310E+03
    11
 # iter = 17250  time[fs]=17.25000
   N -0.671167157E+00 -0.172580373E+01  0.250664701E+01
   N -0.132428267E+03  0.249374170E+03 -0.667669499E+03
   C -0.100853951E+01  0.152017522E+01  0.251030565E+01
   C  0.993960821E+00  0.156052069E+01  0.250853304E+01
   C -0.174043522E+01  0.103040453E-01  0.249931048E+01
   C  0.160317705E+01 -0.309905177E+00  0.251400942E+01
   H -0.297875403E+01  0.493945879E+01  0.255584562E+01
   H  0.294266504E+01  0.492858261E+01  0.250997616E+01
   H -0.601955878E+01 -0.405179256E+00  0.254053659E+01
   H  0.600992164E+01 -0.112928387E+01  0.246678213E+01
  Xx  0.118134851E+03 -0.222252266E+03 -0.130854037E+03
    11
 # iter = 17500  time[fs]=17.50000
   N -0.672826922E+00 -0.173523420E+01  0.250657912E+01
   N -0.134400172E+03  0.253086047E+03 -0.677598410E+03
   C -0.101350112E+01  0.152378396E+01  0.251054577E+01
   C  0.998343791E+00  0.156452352E+01  0.250854341E+01
   C -0.174612797E+01  0.104000268E-01  0.249928381E+01
   C  0.160735126E+01 -0.314316803E+00  0.251420113E+01
   H -0.301486978E+01  0.499850865E+01  0.255683036E+01
   H  0.297949724E+01  0.498750496E+01  0.251001827E+01
   H -0.609803458E+01 -0.416462848E+00  0.254113261E+01
   H  0.608795850E+01 -0.115505948E+01  0.246610505E+01
  Xx  0.119875242E+03 -0.225527911E+03 -0.132829765E+03
    11
 # iter = 17750  time[fs]=17.75000
   N -0.674546936E+00 -0.174462341E+01  0.250653208E+01
   N -0.136372077E+03  0.256797923E+03 -0.687527320E+03
   C -0.101844414E+01  0.152734523E+01  0.251083890E+01
   C  0.100259810E+01  0.156840931E+01  0.250857458E+01
   C -0.175169579E+01  0.105153477E-01  0.249920211E+01
   C  0.161152264E+01 -0.318680877E+00  0.251437833E+01
   H -0.305118774E+01  0.505793383E+01  0.255782625E+01
   H  0.301663399E+01  0.504683118E+01  0.251006388E+01
   H -0.617698538E+01 -0.427901429E+00  0.254171666E+01
   H  0.616640813E+01 -0.118100518E+01  0.246542035E+01
  Xx  0.121615633E+03 -0.228803555E+03 -0.134805492E+03
    11
 # iter = 18000  time[fs]=18.00000
   N -0.676275013E+00 -0.175394165E+01  0.250650065E+01
   N -0.138343981E+03  0.260509800E+03 -0.697456230E+03
   C -0.102336864E+01  0.153080456E+01  0.251113554E+01
   C  0.100677768E+01  0.157216930E+01  0.250863304E+01
   C -0.175712688E+01  0.106131159E-01  0.249906670E+01
   C  0.161563504E+01 -0.322980214E+00  0.251453806E+01
   H -0.308774215E+01  0.511772791E+01  0.255882358E+01
   H  0.305403994E+01  0.510656625E+01  0.251010657E+01
   H -0.625636267E+01 -0.439475983E+00  0.254231142E+01
   H  0.624523685E+01 -0.120711404E+01  0.246475332E+01
  Xx  0.123356024E+03 -0.232079200E+03 -0.136781219E+03
    11
 # iter = 18250  time[fs]=18.25000
   N -0.678044717E+00 -0.176319726E+01  0.250645951E+01
   N -0.140315886E+03  0.264221676E+03 -0.707385141E+03
   C -0.102824371E+01  0.153403523E+01  0.251140736E+01
   C  0.101083380E+01  0.157588101E+01  0.250866761E+01
   C -0.176244114E+01  0.108323664E-01  0.249894071E+01
   C  0.161966233E+01 -0.327224066E+00  0.251471202E+01
   H -0.312454146E+01  0.517788344E+01  0.255981833E+01
   H  0.309171309E+01  0.516668053E+01  0.251015541E+01
   H -0.633616118E+01 -0.451207808E+00  0.254290697E+01
   H  0.632444787E+01 -0.123339261E+01  0.246407051E+01
  Xx  0.125096415E+03 -0.235354844E+03 -0.138756947E+03
    11
 # iter = 18500  time[fs]=18.50000
   N -0.679906734E+00 -0.177240994E+01  0.250639844E+01
   N -0.142287791E+03  0.267933553E+03 -0.717314051E+03
   C -0.103308545E+01  0.153708298E+01  0.251166675E+01
   C  0.101484778E+01  0.157955643E+01  0.250870157E+01
   C -0.176759377E+01  0.111776367E-01  0.249882940E+01
   C  0.162364241E+01 -0.331422912E+00  0.251492184E+01
   H -0.316155688E+01  0.523839517E+01  0.256082231E+01
   H  0.312962794E+01  0.522711972E+01  0.251020981E+01
   H -0.641636887E+01 -0.463077892E+00  0.254348543E+01
   H  0.640405273E+01 -0.125983872E+01  0.246337425E+01
  Xx  0.126836806E+03 -0.238630489E+03 -0.140732674E+03
    11
 # iter = 18750  time[fs]=18.75000
   N -0.681883001E+00 -0.178154564E+01  0.250631137E+01
   N -0.144259696E+03  0.271645429E+03 -0.727242961E+03
   C -0.103794878E+01  0.153998437E+01  0.251197136E+01
   C  0.101877924E+01  0.158315759E+01  0.250868213E+01
   C -0.177255076E+01  0.115827091E-01  0.249872130E+01
   C  0.162755713E+01 -0.335601398E+00  0.251513366E+01
   H -0.319880916E+01  0.529927116E+01  0.256185604E+01
   H  0.316777037E+01  0.528792186E+01  0.251026053E+01
   H -0.649696920E+01 -0.475065606E+00  0.254407568E+01
   H  0.648403627E+01 -0.128644327E+01  0.246268057E+01
  Xx  0.128577198E+03 -0.241906134E+03 -0.142708402E+03
    11
 # iter = 19000  time[fs]=19.00000
   N -0.683926798E+00 -0.179054945E+01  0.250622907E+01
   N -0.146231600E+03  0.275357306E+03 -0.737171872E+03
   C -0.104280752E+01  0.154275889E+01  0.251232524E+01
   C  0.102267334E+01  0.158662571E+01  0.250863614E+01
   C -0.177737606E+01  0.120283286E-01  0.249855557E+01
   C  0.163138743E+01 -0.339719496E+00  0.251534972E+01
   H -0.323629120E+01  0.536052804E+01  0.256287331E+01
   H  0.320617482E+01  0.534906751E+01  0.251032642E+01
   H -0.657795439E+01 -0.487187007E+00  0.254467822E+01
   H  0.656436433E+01 -0.131320187E+01  0.246198644E+01
  Xx  0.130317589E+03 -0.245181778E+03 -0.144684129E+03
    11
 # iter = 19250  time[fs]=19.25000
   N -0.686026232E+00 -0.179948356E+01  0.250614722E+01
   N -0.148203505E+03  0.279069182E+03 -0.747100782E+03
   C -0.104765733E+01  0.154533086E+01  0.251268806E+01
   C  0.102646161E+01  0.158997540E+01  0.250864095E+01
   C -0.178206304E+01  0.126574875E-01  0.249835879E+01
   C  0.163520474E+01 -0.343794628E+00  0.251554331E+01
   H -0.327396799E+01  0.542212968E+01  0.256386759E+01
   H  0.324482662E+01  0.541055904E+01  0.251039643E+01
   H -0.665931358E+01 -0.499437955E+00  0.254526136E+01
   H  0.664505254E+01 -0.134012348E+01  0.246128997E+01
  Xx  0.132057980E+03 -0.248457423E+03 -0.146659857E+03
    11
 # iter = 19500  time[fs]=19.50000
   N -0.688187861E+00 -0.180833064E+01  0.250607181E+01
   N -0.150175410E+03  0.282781059E+03 -0.757029692E+03
   C -0.105250226E+01  0.154770317E+01  0.251298542E+01
   C  0.103018153E+01  0.159326878E+01  0.250865007E+01
   C -0.178663197E+01  0.134300089E-01  0.249818234E+01
   C  0.163894402E+01 -0.347846018E+00  0.251575700E+01
   H -0.331189738E+01  0.548409054E+01  0.256489699E+01
   H  0.328373547E+01  0.547241058E+01  0.251044693E+01
   H -0.674104413E+01 -0.511812258E+00  0.254583929E+01
   H  0.672606813E+01 -0.136718975E+01  0.246058534E+01
  Xx  0.133798371E+03 -0.251733067E+03 -0.148635584E+03
    11
 # iter = 19750  time[fs]=19.75000
   N -0.690358341E+00 -0.181708280E+01  0.250596023E+01
   N -0.152147315E+03  0.286492935E+03 -0.766958603E+03
   C -0.105735263E+01  0.154991922E+01  0.251325646E+01
   C  0.103380907E+01  0.159645268E+01  0.250865619E+01
   C -0.179103246E+01  0.143416553E-01  0.249804395E+01
   C  0.164264679E+01 -0.351872991E+00  0.251595963E+01
   H -0.335005478E+01  0.554635987E+01  0.256593488E+01
   H  0.332285714E+01  0.553459549E+01  0.251050097E+01
   H -0.682312892E+01 -0.524307347E+00  0.254644137E+01
   H  0.680740997E+01 -0.139439731E+01  0.245986799E+01
  Xx  0.135538762E+03 -0.255008712E+03 -0.150611312E+03
    11
 # iter = 20000  time[fs]=20.00000
   N -0.692578874E+00 -0.182574947E+01  0.250582347E+01
   N -0.154119220E+03  0.290204811E+03 -0.776887513E+03
   C -0.106226341E+01  0.155196304E+01  0.251354485E+01
   C  0.103737066E+01  0.159950606E+01  0.250865879E+01
   C -0.179527573E+01  0.154001682E-01  0.249793439E+01
   C  0.164629556E+01 -0.355838893E+00  0.251616531E+01
   H -0.338838313E+01  0.560895705E+01  0.256694499E+01
   H  0.336220353E+01  0.559712346E+01  0.251056076E+01
   H -0.690558174E+01 -0.536938895E+00  0.254704891E+01
   H  0.688907588E+01 -0.142175415E+01  0.245915493E+01
  Xx  0.137279153E+03 -0.258284356E+03 -0.152587039E+03
    11
 # iter = 20250  time[fs]=20.25000
   N -0.694871029E+00 -0.183432576E+01  0.250569124E+01
   N -0.156091124E+03  0.293916688E+03 -0.786816424E+03
   C -0.106725258E+01  0.155380810E+01  0.251383043E+01
   C  0.104087969E+01  0.160242599E+01  0.250867979E+01
   C -0.179933942E+01  0.166042131E-01  0.249780253E+01
   C  0.164989899E+01 -0.359754583E+00  0.251636436E+01
   H -0.342690641E+01  0.567184577E+01  0.256797604E+01
   H  0.340179709E+01  0.565997241E+01  0.251059925E+01
   H -0.698836175E+01 -0.549676056E+00  0.254765038E+01
   H  0.697106052E+01 -0.144927232E+01  0.245844894E+01
  Xx  0.139019544E+03 -0.261560001E+03 -0.154562766E+03
    11
 # iter = 20500  time[fs]=20.50000
   N -0.697230182E+00 -0.184282193E+01  0.250555447E+01
   N -0.158063029E+03  0.297628564E+03 -0.796745334E+03
   C -0.107226660E+01  0.155540607E+01  0.251409591E+01
   C  0.104428739E+01  0.160530684E+01  0.250869085E+01
   C -0.180322640E+01  0.180043289E-01  0.249768613E+01
   C  0.165345464E+01 -0.363632040E+00  0.251652590E+01
   H -0.346565151E+01  0.573502093E+01  0.256902144E+01
   H  0.344157750E+01  0.572314145E+01  0.251063729E+01
   H -0.707147779E+01 -0.562531423E+00  0.254826212E+01
   H  0.705335193E+01 -0.147691912E+01  0.245772623E+01
  Xx  0.140759936E+03 -0.264835645E+03 -0.156538494E+03
    11
 # iter = 20750  time[fs]=20.75000
   N -0.699647940E+00 -0.185125636E+01  0.250540809E+01
   N -0.160034934E+03  0.301340441E+03 -0.806674244E+03
   C -0.107727687E+01  0.155678738E+01  0.251432982E+01
   C  0.104767012E+01  0.160810058E+01  0.250872610E+01
   C -0.180700177E+01  0.195898778E-01  0.249759716E+01
   C  0.165697951E+01 -0.367457952E+00  0.251669628E+01
   H -0.350452738E+01  0.579850643E+01  0.257004943E+01
   H  0.348155847E+01  0.578661612E+01  0.251069624E+01
   H -0.715492243E+01 -0.575502965E+00  0.254887486E+01
   H  0.713593797E+01 -0.150469377E+01  0.245699855E+01
  Xx  0.142500327E+03 -0.268111290E+03 -0.158514221E+03
    11
 # iter = 21000  time[fs]=21.00000
   N -0.702093706E+00 -0.185961782E+01  0.250525855E+01
   N -0.162006839E+03  0.305052317E+03 -0.816603155E+03
   C -0.108231098E+01  0.155796231E+01  0.251453410E+01
   C  0.105098105E+01  0.161078009E+01  0.250877682E+01
   C -0.181066246E+01  0.213233813E-01  0.249750112E+01
   C  0.166048210E+01 -0.371202716E+00  0.251687703E+01
   H -0.354358491E+01  0.586227456E+01  0.257108779E+01
   H  0.352174714E+01  0.585034952E+01  0.251075041E+01
   H -0.723867513E+01 -0.588573177E+00  0.254948537E+01
   H  0.721880721E+01 -0.153260815E+01  0.245629138E+01
  Xx  0.144240718E+03 -0.271386934E+03 -0.160489949E+03
    11
 # iter = 21250  time[fs]=21.25000
   N -0.704582488E+00 -0.186787461E+01  0.250510677E+01
   N -0.163978743E+03  0.308764194E+03 -0.826532065E+03
   C -0.108741113E+01  0.155890299E+01  0.251474334E+01
   C  0.105423946E+01  0.161330260E+01  0.250878621E+01
   C -0.181419424E+01  0.231715560E-01  0.249742867E+01
   C  0.166395873E+01 -0.374829936E+00  0.251707291E+01
   H -0.358285313E+01  0.592631864E+01  0.257213430E+01
   H  0.356213951E+01  0.591438974E+01  0.251078921E+01
   H -0.732274985E+01 -0.601758032E+00  0.255010859E+01
   H  0.730198248E+01 -0.156067516E+01  0.245559025E+01
  Xx  0.145981109E+03 -0.274662579E+03 -0.162465676E+03
    11
 # iter = 21500  time[fs]=21.50000
   N -0.707166573E+00 -0.187604217E+01  0.250491916E+01
   N -0.165950648E+03  0.312476070E+03 -0.836460975E+03
   C -0.109253019E+01  0.155961421E+01  0.251493879E+01
   C  0.105750585E+01  0.161573858E+01  0.250883339E+01
   C -0.181759553E+01  0.251512556E-01  0.249737770E+01
   C  0.166742191E+01 -0.378371672E+00  0.251725080E+01
   H -0.362227523E+01  0.599064570E+01  0.257317101E+01
   H  0.360271784E+01  0.597869762E+01  0.251083562E+01
   H -0.740711683E+01 -0.615046699E+00  0.255072957E+01
   H  0.738541973E+01 -0.158885766E+01  0.245487627E+01
  Xx  0.147721500E+03 -0.277938223E+03 -0.164441404E+03
    11
 # iter = 21750  time[fs]=21.75000
   N -0.709853944E+00 -0.188413803E+01  0.250471960E+01
   N -0.167922553E+03  0.316187947E+03 -0.846389886E+03
   C -0.109761820E+01  0.156013687E+01  0.251512570E+01
   C  0.106074131E+01  0.161806558E+01  0.250888992E+01
   C -0.182089386E+01  0.272134741E-01  0.249732628E+01
   C  0.167085504E+01 -0.381846839E+00  0.251741979E+01
   H -0.366188412E+01  0.605524490E+01  0.257421767E+01
   H  0.364350374E+01  0.604328291E+01  0.251088817E+01
   H -0.749178386E+01 -0.628443394E+00  0.255133986E+01
   H  0.746914537E+01 -0.161716470E+01  0.245415769E+01
  Xx  0.149461891E+03 -0.281213868E+03 -0.166417131E+03
    11
 # iter = 22000  time[fs]=22.00000
   N -0.712593145E+00 -0.189215518E+01  0.250453287E+01
   N -0.169894458E+03  0.319899823E+03 -0.856318796E+03
   C -0.110273631E+01  0.156047865E+01  0.251531258E+01
   C  0.106394197E+01  0.162032916E+01  0.250892911E+01
   C -0.182404577E+01  0.293197256E-01  0.249728091E+01
   C  0.167418438E+01 -0.385250361E+00  0.251756920E+01
   H -0.370166769E+01  0.612012735E+01  0.257526993E+01
   H  0.368447968E+01  0.610815411E+01  0.251093957E+01
   H -0.757673720E+01 -0.641954487E+00  0.255196184E+01
   H  0.755314809E+01 -0.164560747E+01  0.245344567E+01
  Xx  0.151202282E+03 -0.284489512E+03 -0.168392859E+03
    11
 # iter = 22250  time[fs]=22.25000
   N -0.715386027E+00 -0.190015644E+01  0.250433219E+01
   N -0.171866363E+03  0.323611700E+03 -0.866247706E+03
   C -0.110780680E+01  0.156060356E+01  0.251549375E+01
   C  0.106713403E+01  0.162247437E+01  0.250896649E+01
   C -0.182707268E+01  0.315431032E-01  0.249725485E+01
   C  0.167744121E+01 -0.388552231E+00  0.251773864E+01
   H -0.374161834E+01  0.618528775E+01  0.257632000E+01
   H  0.372562689E+01  0.617324934E+01  0.251098529E+01
   H -0.766199582E+01 -0.655573027E+00  0.255259150E+01
   H  0.763740734E+01 -0.167417599E+01  0.245273176E+01
  Xx  0.152942674E+03 -0.287765157E+03 -0.170368586E+03
    11
 # iter = 22500  time[fs]=22.50000
   N -0.718235838E+00 -0.190813772E+01  0.250413308E+01
   N -0.173838267E+03  0.327323576E+03 -0.876176617E+03
   C -0.111286339E+01  0.156050480E+01  0.251565665E+01
   C  0.107023046E+01  0.162449508E+01  0.250899586E+01
   C -0.183002406E+01  0.339484464E-01  0.249724044E+01
   C  0.168070588E+01 -0.391730223E+00  0.251789302E+01
   H -0.378174488E+01  0.625069395E+01  0.257737797E+01
   H  0.376697555E+01  0.623859272E+01  0.251101756E+01
   H -0.774755094E+01 -0.669276366E+00  0.255320422E+01
   H  0.772193366E+01 -0.170285652E+01  0.245201033E+01
  Xx  0.154683065E+03 -0.291040801E+03 -0.172344313E+03
    11
 # iter = 22750  time[fs]=22.75000
   N -0.721110140E+00 -0.191614086E+01  0.250393278E+01
   N -0.175810172E+03  0.331035453E+03 -0.886105527E+03
   C -0.111790522E+01  0.156018171E+01  0.251582850E+01
   C  0.107325439E+01  0.162643875E+01  0.250902333E+01
   C -0.183290150E+01  0.364655802E-01  0.249720254E+01
   C  0.168396360E+01 -0.394834608E+00  0.251804742E+01
   H -0.382202533E+01  0.631636870E+01  0.257842727E+01
   H  0.380851165E+01  0.630421060E+01  0.251105054E+01
   H -0.783337433E+01 -0.683082918E+00  0.255381216E+01
   H  0.780672819E+01 -0.173166314E+01  0.245128862E+01
  Xx  0.156423456E+03 -0.294316446E+03 -0.174320041E+03
    11
 # iter = 23000  time[fs]=23.00000
   N -0.724029521E+00 -0.192411511E+01  0.250374364E+01
   N -0.177782077E+03  0.334747329E+03 -0.896034437E+03
   C -0.112292948E+01  0.155966714E+01  0.251600617E+01
   C  0.107623374E+01  0.162829624E+01  0.250907776E+01
   C -0.183571534E+01  0.390644003E-01  0.249713138E+01
   C  0.168715393E+01 -0.397870301E+00  0.251820456E+01
   H -0.386246955E+01  0.638229794E+01  0.257946564E+01
   H  0.385021093E+01  0.637007608E+01  0.251109393E+01
   H -0.791948880E+01 -0.697004189E+00  0.255443096E+01
   H  0.789178359E+01 -0.176059876E+01  0.245056502E+01
  Xx  0.158163847E+03 -0.297592090E+03 -0.176295768E+03
    11
 # iter = 23250  time[fs]=23.25000
   N -0.726985048E+00 -0.193205317E+01  0.250354308E+01
   N -0.179753982E+03  0.338459206E+03 -0.905963348E+03
   C -0.112791060E+01  0.155896373E+01  0.251617169E+01
   C  0.107920946E+01  0.163004133E+01  0.250913862E+01
   C -0.183841418E+01  0.417487518E-01  0.249706678E+01
   C  0.169028938E+01 -0.400828059E+00  0.251833648E+01
   H -0.390309162E+01  0.644849554E+01  0.258052884E+01
   H  0.389208973E+01  0.643615992E+01  0.251113073E+01
   H -0.800590776E+01 -0.711019699E+00  0.255504701E+01
   H  0.797709203E+01 -0.178964848E+01  0.244983642E+01
  Xx  0.159904238E+03 -0.300867735E+03 -0.178271496E+03
    11
 # iter = 23500  time[fs]=23.50000
   N -0.730002254E+00 -0.193998293E+01  0.250331593E+01
   N -0.181725886E+03  0.342171082E+03 -0.915892258E+03
   C -0.113287950E+01  0.155804158E+01  0.251632170E+01
   C  0.108216756E+01  0.163174470E+01  0.250919178E+01
   C -0.184103840E+01  0.445096868E-01  0.249704756E+01
   C  0.169339069E+01 -0.403699869E+00  0.251848764E+01
   H -0.394384061E+01  0.651491929E+01  0.258160407E+01
   H  0.393412934E+01  0.650248261E+01  0.251116386E+01
   H -0.809261242E+01 -0.725135513E+00  0.255566090E+01
   H  0.806265799E+01 -0.181881118E+01  0.244910386E+01
  Xx  0.161644629E+03 -0.304143379E+03 -0.180247223E+03
    11
 # iter = 23750  time[fs]=23.75000
   N -0.733077313E+00 -0.194794658E+01  0.250307726E+01
   N -0.183697791E+03  0.345882959E+03 -0.925821168E+03
   C -0.113784165E+01  0.155692775E+01  0.251644432E+01
   C  0.108503620E+01  0.163340300E+01  0.250920897E+01
   C -0.184356249E+01  0.473416339E-01  0.249706222E+01
   C  0.169647976E+01 -0.406525693E+00  0.251865448E+01
   H -0.398474258E+01  0.658160181E+01  0.258266252E+01
   H  0.397633154E+01  0.656905441E+01  0.251120321E+01
   H -0.817959276E+01 -0.739357912E+00  0.255628401E+01
   H  0.814849502E+01 -0.184810250E+01  0.244836651E+01
  Xx  0.163385020E+03 -0.307419024E+03 -0.182222951E+03
    11
 # iter = 24000  time[fs]=24.00000
   N -0.736202093E+00 -0.195589532E+01  0.250283451E+01
   N -0.185669696E+03  0.349594835E+03 -0.935750079E+03
   C -0.114279536E+01  0.155563430E+01  0.251658250E+01
   C  0.108790533E+01  0.163499420E+01  0.250924196E+01
   C -0.184599908E+01  0.502498574E-01  0.249704249E+01
   C  0.169950534E+01 -0.409269320E+00  0.251880268E+01
   H -0.402581319E+01  0.664854054E+01  0.258373714E+01
   H  0.401870562E+01  0.663585506E+01  0.251123995E+01
   H -0.826686154E+01 -0.753681975E+00  0.255690955E+01
   H  0.823460002E+01 -0.187752082E+01  0.244762781E+01
  Xx  0.165125412E+03 -0.310694668E+03 -0.184198678E+03
    11
 # iter = 24250  time[fs]=24.25000
   N -0.739365458E+00 -0.196383070E+01  0.250260694E+01
   N -0.187641601E+03  0.353306712E+03 -0.945678989E+03
   C -0.114766782E+01  0.155416149E+01  0.251673581E+01
   C  0.109073312E+01  0.163646078E+01  0.250928475E+01
   C -0.184838897E+01  0.531746809E-01  0.249700147E+01
   C  0.170246292E+01 -0.411916738E+00  0.251894336E+01
   H -0.406702823E+01  0.671570191E+01  0.258483094E+01
   H  0.406123768E+01  0.670288571E+01  0.251127238E+01
   H -0.835441234E+01 -0.768108786E+00  0.255753380E+01
   H  0.832096328E+01 -0.190705767E+01  0.244688842E+01
  Xx  0.166865803E+03 -0.313970313E+03 -0.186174406E+03
    11
 # iter = 24500  time[fs]=24.50000
   N -0.742566890E+00 -0.197173885E+01  0.250238215E+01
   N -0.189613505E+03  0.357018588E+03 -0.955607899E+03
   C -0.115245352E+01  0.155256708E+01  0.251686421E+01
   C  0.109351073E+01  0.163786459E+01  0.250933832E+01
   C -0.185071144E+01  0.561258490E-01  0.249698061E+01
   C  0.170539617E+01 -0.414460944E+00  0.251908448E+01
   H -0.410836751E+01  0.678311220E+01  0.258591126E+01
   H  0.410391636E+01  0.677013036E+01  0.251130994E+01
   H -0.844224977E+01 -0.782638216E+00  0.255816082E+01
   H  0.840759148E+01 -0.193671039E+01  0.244614604E+01
  Xx  0.168606194E+03 -0.317245957E+03 -0.188150133E+03
    11
 # iter = 24750  time[fs]=24.75000
   N -0.745820256E+00 -0.197962856E+01  0.250212814E+01
   N -0.191585410E+03  0.360730465E+03 -0.965536810E+03
   C -0.115724839E+01  0.155080750E+01  0.251700362E+01
   C  0.109623417E+01  0.163915302E+01  0.250935044E+01
   C -0.185292049E+01  0.591515076E-01  0.249695727E+01
   C  0.170830390E+01 -0.416911053E+00  0.251922423E+01
   H -0.414984447E+01  0.685075187E+01  0.258700139E+01
   H  0.414675744E+01  0.683759722E+01  0.251135173E+01
   H -0.853036806E+01 -0.797265731E+00  0.255878750E+01
   H  0.849447823E+01 -0.196648450E+01  0.244540092E+01
  Xx  0.170346585E+03 -0.320521602E+03 -0.190125860E+03
    11
 # iter = 25000  time[fs]=25.00000
   N -0.749125081E+00 -0.198749818E+01  0.250186022E+01
   N -0.193557315E+03  0.364442341E+03 -0.975465720E+03
   C -0.116204241E+01  0.154882743E+01  0.251713046E+01
   C  0.109890608E+01  0.164031930E+01  0.250937860E+01
   C -0.185500767E+01  0.622892427E-01  0.249696943E+01
   C  0.171121100E+01 -0.419262497E+00  0.251938389E+01
   H -0.419148372E+01  0.691861536E+01  0.258811008E+01
   H  0.418976768E+01  0.690529761E+01  0.251139618E+01
   H -0.861876159E+01 -0.811992658E+00  0.255941283E+01
   H  0.858162239E+01 -0.199637760E+01  0.244465392E+01
  Xx  0.172086976E+03 -0.323797246E+03 -0.192101588E+03
    11
 # iter = 25250  time[fs]=25.25000
   N -0.752465345E+00 -0.199531124E+01  0.250159458E+01
   N -0.195529220E+03  0.368154218E+03 -0.985394631E+03
   C -0.116682020E+01  0.154668347E+01  0.251724719E+01
   C  0.110152082E+01  0.164135796E+01  0.250939036E+01
   C -0.185702987E+01  0.654877421E-01  0.249698567E+01
   C  0.171409352E+01 -0.421473215E+00  0.251955381E+01
   H -0.423323666E+01  0.698668750E+01  0.258920541E+01
   H  0.423292511E+01  0.697321011E+01  0.251144076E+01
   H -0.870742778E+01 -0.826816311E+00  0.256003721E+01
   H  0.866902228E+01 -0.202638662E+01  0.244390400E+01
  Xx  0.173827367E+03 -0.327072891E+03 -0.194077315E+03
    11
 # iter = 25500  time[fs]=25.50000
   N -0.755805274E+00 -0.200307083E+01  0.250132883E+01
   N -0.197501125E+03  0.371866094E+03 -0.995323541E+03
   C -0.117153568E+01  0.154440950E+01  0.251738061E+01
   C  0.110409784E+01  0.164230524E+01  0.250942698E+01
   C -0.185899388E+01  0.687114490E-01  0.249696211E+01
   C  0.171695251E+01 -0.423632452E+00  0.251968839E+01
   H -0.427511090E+01  0.705499174E+01  0.259029458E+01
   H  0.427622757E+01  0.704132957E+01  0.251148104E+01
   H -0.879637171E+01 -0.841736765E+00  0.256066065E+01
   H  0.875666362E+01 -0.205650839E+01  0.244315126E+01
  Xx  0.175567758E+03 -0.330348535E+03 -0.196053043E+03
    11
 # iter = 25750  time[fs]=25.75000
   N -0.759157591E+00 -0.201079170E+01  0.250106551E+01
   N -0.199473029E+03  0.375577971E+03 -0.100525245E+04
   C -0.117624649E+01  0.154194629E+01  0.251748466E+01
   C  0.110663326E+01  0.164320988E+01  0.250947402E+01
   C -0.186086418E+01  0.720723699E-01  0.249697494E+01
   C  0.171973903E+01 -0.425707710E+00  0.251981723E+01
   H -0.431712992E+01  0.712350027E+01  0.259139351E+01
   H  0.431967945E+01  0.710966148E+01  0.251151458E+01
   H -0.888558320E+01 -0.856750772E+00  0.256128494E+01
   H  0.884455365E+01 -0.208674321E+01  0.244239588E+01
  Xx  0.177308149E+03 -0.333624180E+03 -0.198028770E+03
    11
 # iter = 26000  time[fs]=26.00000
   N -0.762511995E+00 -0.201849757E+01  0.250079184E+01
   N -0.201444934E+03  0.379289847E+03 -0.101518136E+04
   C -0.118101532E+01  0.153923646E+01  0.251756012E+01
   C  0.110916086E+01  0.164408201E+01  0.250950437E+01
   C -0.186258804E+01  0.756019694E-01  0.249703507E+01
   C  0.172246369E+01 -0.427754605E+00  0.251993683E+01
   H -0.435927675E+01  0.719221169E+01  0.259249335E+01
   H  0.436328153E+01  0.717820433E+01  0.251154591E+01
   H -0.897505723E+01 -0.871861051E+00  0.256191034E+01
   H  0.893268634E+01 -0.211709365E+01  0.244163761E+01
  Xx  0.179048541E+03 -0.336899824E+03 -0.200004498E+03
    11
 # iter = 26250  time[fs]=26.25000
   N -0.765862409E+00 -0.202611993E+01  0.250051266E+01
   N -0.203416839E+03  0.383001724E+03 -0.102511027E+04
   C -0.118579575E+01  0.153631491E+01  0.251767396E+01
   C  0.111167511E+01  0.164488477E+01  0.250950994E+01
   C -0.186423750E+01  0.792598069E-01  0.249707679E+01
   C  0.172514460E+01 -0.429733715E+00  0.252005439E+01
   H -0.440154630E+01  0.726115362E+01  0.259359568E+01
   H  0.440703452E+01  0.724695872E+01  0.251158020E+01
   H -0.906478878E+01 -0.887064655E+00  0.256253618E+01
   H  0.902105444E+01 -0.214755665E+01  0.244087601E+01
  Xx  0.180788932E+03 -0.340175469E+03 -0.201980225E+03
    11
 # iter = 26500  time[fs]=26.50000
   N -0.769198829E+00 -0.203362569E+01  0.250024537E+01
   N -0.205388744E+03  0.386713600E+03 -0.103503918E+04
   C -0.119058266E+01  0.153321707E+01  0.251776772E+01
   C  0.111417671E+01  0.164560401E+01  0.250953676E+01
   C -0.186581676E+01  0.830030862E-01  0.249709479E+01
   C  0.172776111E+01 -0.431647071E+00  0.252017919E+01
   H -0.444394360E+01  0.733029334E+01  0.259470397E+01
   H  0.445092885E+01  0.731591047E+01  0.251161541E+01
   H -0.915477644E+01 -0.902359405E+00  0.256316118E+01
   H  0.910965553E+01 -0.217812964E+01  0.244011174E+01
  Xx  0.182529323E+03 -0.343451113E+03 -0.203955953E+03
    11
 # iter = 26750  time[fs]=26.75000
   N -0.772501104E+00 -0.204103157E+01  0.249997258E+01
   N -0.207360648E+03  0.390425477E+03 -0.104496809E+04
   C -0.119540885E+01  0.152992295E+01  0.251784063E+01
   C  0.111667996E+01  0.164624369E+01  0.250958193E+01
   C -0.186729919E+01  0.868140595E-01  0.249714691E+01
   C  0.173034996E+01 -0.433466607E+00  0.252028735E+01
   H -0.448648215E+01  0.739964102E+01  0.259581237E+01
   H  0.449497152E+01  0.738506394E+01  0.251164675E+01
   H -0.924501761E+01 -0.917747775E+00  0.256378656E+01
   H  0.919848584E+01 -0.220881199E+01  0.243934487E+01
  Xx  0.184269714E+03 -0.346726758E+03 -0.205931680E+03
    11
 # iter = 27000  time[fs]=27.00000
   N -0.775776135E+00 -0.204834213E+01  0.249969551E+01
   N -0.209332553E+03  0.394137353E+03 -0.105489700E+04
   C -0.120028879E+01  0.152643500E+01  0.251790439E+01
   C  0.111914906E+01  0.164681266E+01  0.250961223E+01
   C -0.186870728E+01  0.907289669E-01  0.249721397E+01
   C  0.173289916E+01 -0.435216427E+00  0.252038853E+01
   H -0.452915554E+01  0.746920589E+01  0.259692039E+01
   H  0.453916640E+01  0.745442042E+01  0.251167410E+01
   H -0.933550069E+01 -0.933226263E+00  0.256441268E+01
   H  0.928754562E+01 -0.223960470E+01  0.243857527E+01
  Xx  0.186010105E+03 -0.350002402E+03 -0.207907407E+03
    11
 # iter = 27250  time[fs]=27.25000
   N -0.779016050E+00 -0.205556581E+01  0.249941456E+01
   N -0.211304458E+03  0.397849230E+03 -0.106482591E+04
   C -0.120511369E+01  0.152276407E+01  0.251794296E+01
   C  0.112159529E+01  0.164729655E+01  0.250967798E+01
   C -0.187005842E+01  0.947742350E-01  0.249730747E+01
   C  0.173541490E+01 -0.436913223E+00  0.252049746E+01
   H -0.457194735E+01  0.753896256E+01  0.259803173E+01
   H  0.458350175E+01  0.752397103E+01  0.251170473E+01
   H -0.942622865E+01 -0.948793847E+00  0.256504014E+01
   H  0.937682712E+01 -0.227050490E+01  0.243780357E+01
  Xx  0.187750496E+03 -0.353278047E+03 -0.209883135E+03
    11
 # iter = 27500  time[fs]=27.50000
   N -0.782227907E+00 -0.206269751E+01  0.249913123E+01
   N -0.213276363E+03  0.401561106E+03 -0.107475482E+04
   C -0.120988651E+01  0.151888230E+01  0.251798282E+01
   C  0.112399315E+01  0.164772710E+01  0.250971376E+01
   C -0.187136925E+01  0.989753618E-01  0.249737337E+01
   C  0.173787360E+01 -0.438551054E+00  0.252060601E+01
   H -0.461487761E+01  0.760892503E+01  0.259914595E+01
   H  0.462797950E+01  0.759372717E+01  0.251174012E+01
   H -0.951719514E+01 -0.964448668E+00  0.256566803E+01
   H  0.946632904E+01 -0.230151215E+01  0.243702972E+01
  Xx  0.189490887E+03 -0.356553692E+03 -0.211858862E+03
    11
 # iter = 27750  time[fs]=27.75000
   N -0.785404216E+00 -0.206973294E+01  0.249886454E+01
   N -0.215248268E+03  0.405272983E+03 -0.108468373E+04
   C -0.121467843E+01  0.151480416E+01  0.251802884E+01
   C  0.112638110E+01  0.164807170E+01  0.250978318E+01
   C -0.187260919E+01  0.103329245E+00  0.249742327E+01
   C  0.174030769E+01 -0.440116017E+00  0.252069306E+01
   H -0.465794565E+01  0.767909271E+01  0.260026624E+01
   H  0.467260727E+01  0.766368572E+01  0.251177466E+01
   H -0.960839751E+01 -0.980192733E+00  0.256629754E+01
   H  0.955604668E+01 -0.233262622E+01  0.243625475E+01
  Xx  0.191231279E+03 -0.359829336E+03 -0.213834590E+03
    11
 # iter = 28000  time[fs]=28.00000
   N -0.788556022E+00 -0.207667575E+01  0.249859862E+01
   N -0.217220172E+03  0.408984859E+03 -0.109461264E+04
   C -0.121950330E+01  0.151052561E+01  0.251805100E+01
   C  0.112875358E+01  0.164833980E+01  0.250985381E+01
   C -0.187376800E+01  0.107793213E+00  0.249751513E+01
   C  0.174271729E+01 -0.441613934E+00  0.252077269E+01
   H -0.470113474E+01  0.774944430E+01  0.260139213E+01
   H  0.471737765E+01  0.773383717E+01  0.251180476E+01
   H -0.969983039E+01 -0.996027294E+00  0.256692989E+01
   H  0.964598073E+01 -0.236384784E+01  0.243547890E+01
  Xx  0.192971670E+03 -0.363104981E+03 -0.215810317E+03
    11
 # iter = 28250  time[fs]=28.25000
   N -0.791690004E+00 -0.208351743E+01  0.249832572E+01
   N -0.219192077E+03  0.412696736E+03 -0.110454155E+04
   C -0.122435160E+01  0.150607942E+01  0.251806919E+01
   C  0.113109458E+01  0.164852949E+01  0.250991189E+01
   C -0.187485586E+01  0.112335620E+00  0.249761715E+01
   C  0.174508890E+01 -0.442996534E+00  0.252083844E+01
   H -0.474445789E+01  0.782000609E+01  0.260252064E+01
   H  0.476229008E+01  0.780418808E+01  0.251183758E+01
   H -0.979149080E+01 -0.101194930E+01  0.256756512E+01
   H  0.973613221E+01 -0.239517485E+01  0.243470169E+01
  Xx  0.194712061E+03 -0.366380625E+03 -0.217786045E+03
    11
 # iter = 28500  time[fs]=28.50000
   N -0.794794160E+00 -0.209023308E+01  0.249806049E+01
   N -0.221163982E+03  0.416408612E+03 -0.111447047E+04
   C -0.122922497E+01  0.150148174E+01  0.251806073E+01
   C  0.113347947E+01  0.164862357E+01  0.250995966E+01
   C -0.187586824E+01  0.116969356E+00  0.249773179E+01
   C  0.174741793E+01 -0.444318052E+00  0.252091852E+01
   H -0.478791192E+01  0.789076587E+01  0.260365299E+01
   H  0.480734989E+01  0.787473945E+01  0.251187621E+01
   H -0.988338092E+01 -0.102795790E+01  0.256820270E+01
   H  0.982649445E+01 -0.242660455E+01  0.243392298E+01
  Xx  0.196452452E+03 -0.369656270E+03 -0.219761772E+03
    11
 # iter = 28750  time[fs]=28.75000
   N -0.797875333E+00 -0.209684331E+01  0.249780032E+01
   N -0.223135887E+03  0.420120489E+03 -0.112439938E+04
   C -0.123412254E+01  0.149661300E+01  0.251805024E+01
   C  0.113585549E+01  0.164863895E+01  0.251001308E+01
   C -0.187681005E+01  0.121780873E+00  0.249783481E+01
   C  0.174970163E+01 -0.445560262E+00  0.252100867E+01
   H -0.483149577E+01  0.796170878E+01  0.260479034E+01
   H  0.485255179E+01  0.794548362E+01  0.251191358E+01
   H -0.997549056E+01 -0.104405268E+01  0.256884114E+01
   H  0.991706957E+01 -0.245813877E+01  0.243314205E+01
  Xx  0.198192843E+03 -0.372931914E+03 -0.221737500E+03
    11
 # iter = 29000  time[fs]=29.00000
   N -0.800927062E+00 -0.210337681E+01  0.249754260E+01
   N -0.225107791E+03  0.423832365E+03 -0.113432829E+04
   C -0.123911758E+01  0.149147263E+01  0.251805260E+01
   C  0.113823189E+01  0.164858711E+01  0.251007646E+01
   C -0.187761872E+01  0.126777135E+00  0.249794073E+01
   C  0.175195573E+01 -0.446731381E+00  0.252106470E+01
   H -0.487522007E+01  0.803286263E+01  0.260592932E+01
   H  0.489790172E+01  0.801642592E+01  0.251194659E+01
   H -0.100678209E+02 -0.106023487E+01  0.256948021E+01
   H  0.100078533E+02 -0.248977738E+01  0.243235889E+01
  Xx  0.199933234E+03 -0.376207559E+03 -0.223713227E+03
    11
 # iter = 29250  time[fs]=29.25000
   N -0.803933078E+00 -0.210984586E+01  0.249729041E+01
   N -0.227079696E+03  0.427544242E+03 -0.114425720E+04
   C -0.124416351E+01  0.148612891E+01  0.251797587E+01
   C  0.114064164E+01  0.164845906E+01  0.251015899E+01
   C -0.187834308E+01  0.131925743E+00  0.249809132E+01
   C  0.175417031E+01 -0.447822268E+00  0.252111825E+01
   H -0.491908042E+01  0.810422097E+01  0.260706911E+01
   H  0.494340309E+01  0.808756632E+01  0.251197730E+01
   H -0.101603734E+02 -0.107650522E+01  0.257011978E+01
   H  0.100988385E+02 -0.252151827E+01  0.243157349E+01
  Xx  0.201673625E+03 -0.379483203E+03 -0.225688954E+03
    11
 # iter = 29500  time[fs]=29.50000
   N -0.806878862E+00 -0.211626296E+01  0.249704322E+01
   N -0.229051601E+03  0.431256118E+03 -0.115418611E+04
   C -0.124920639E+01  0.148060694E+01  0.251791294E+01
   C  0.114301639E+01  0.164821814E+01  0.251025321E+01
   C -0.187899812E+01  0.137222253E+00  0.249822606E+01
   C  0.175635595E+01 -0.448833234E+00  0.252114591E+01
   H -0.496307757E+01  0.817577463E+01  0.260821276E+01
   H  0.498905884E+01  0.815890508E+01  0.251200544E+01
   H -0.102531475E+02 -0.109286299E+01  0.257075973E+01
   H  0.101900205E+02 -0.255336060E+01  0.243078560E+01
  Xx  0.203414017E+03 -0.382758848E+03 -0.227664682E+03
    11
 # iter = 29750  time[fs]=29.75000
   N -0.809771213E+00 -0.212262219E+01  0.249681003E+01
   N -0.231023506E+03  0.434967995E+03 -0.116411502E+04
   C -0.125432268E+01  0.147492989E+01  0.251785803E+01
   C  0.114536423E+01  0.164788833E+01  0.251033625E+01
   C -0.187952032E+01  0.142647685E+00  0.249832951E+01
   C  0.175853108E+01 -0.449761288E+00  0.252120600E+01
   H -0.500721531E+01  0.824753523E+01  0.260935827E+01
   H  0.503486932E+01  0.823044127E+01  0.251203003E+01
   H -0.103461392E+02 -0.110930741E+01  0.257140028E+01
   H  0.102813978E+02 -0.258530345E+01  0.242999585E+01
  Xx  0.205154408E+03 -0.386034492E+03 -0.229640409E+03
    11
 # iter = 30000  time[fs]=30.00000
   N -0.812614849E+00 -0.212894693E+01  0.249658383E+01
   N -0.232995411E+03  0.438679871E+03 -0.117404393E+04
   C -0.125943223E+01  0.146906518E+01  0.251776483E+01
   C  0.114767414E+01  0.164746254E+01  0.251040442E+01
   C -0.187997754E+01  0.148188471E+00  0.249846794E+01
   C  0.176067828E+01 -0.450621428E+00  0.252126324E+01
   H -0.505149345E+01  0.831950061E+01  0.261050334E+01
   H  0.508083539E+01  0.830217724E+01  0.251205240E+01
   H -0.104393424E+02 -0.112584034E+01  0.257204194E+01
   H  0.103729701E+02 -0.261734784E+01  0.242920387E+01
  Xx  0.206894799E+03 -0.389310137E+03 -0.231616137E+03
    11
 # iter = 30250  time[fs]=30.25000
   N -0.815412991E+00 -0.213520299E+01  0.249635761E+01
   N -0.234967315E+03  0.442391747E+03 -0.118397284E+04
   C -0.126450668E+01  0.146302469E+01  0.251767840E+01
   C  0.114993667E+01  0.164695263E+01  0.251049604E+01
   C -0.188037350E+01  0.153845995E+00  0.249858353E+01
   C  0.176280022E+01 -0.451424628E+00  0.252130696E+01
   H -0.509591191E+01  0.839166525E+01  0.261165118E+01
   H  0.512695467E+01  0.837410791E+01  0.251207546E+01
   H -0.105327542E+02 -0.114245930E+01  0.257268474E+01
   H  0.104647341E+02 -0.264949133E+01  0.242841000E+01
  Xx  0.208635190E+03 -0.392585781E+03 -0.233591864E+03
    11
 # iter = 30500  time[fs]=30.50000
   N -0.818154408E+00 -0.214142024E+01  0.249613322E+01
   N -0.236939220E+03  0.446103624E+03 -0.119390175E+04
   C -0.126961883E+01  0.145680989E+01  0.251756573E+01
   C  0.115222268E+01  0.164640870E+01  0.251062287E+01
   C -0.188068083E+01  0.159605123E+00  0.249871509E+01
   C  0.176487297E+01 -0.452180224E+00  0.252132207E+01
   H -0.514046958E+01  0.846402921E+01  0.261280327E+01
   H  0.517322472E+01  0.844622856E+01  0.251209927E+01
   H -0.106263730E+02 -0.115916289E+01  0.257332933E+01
   H  0.105566890E+02 -0.268173220E+01  0.242761435E+01
  Xx  0.210375581E+03 -0.395861426E+03 -0.235567592E+03
    11
 # iter = 30750  time[fs]=30.75000
   N -0.820837915E+00 -0.214761228E+01  0.249590714E+01
   N -0.238911125E+03  0.449815500E+03 -0.120383066E+04
   C -0.127478857E+01  0.145045977E+01  0.251743025E+01
   C  0.115453705E+01  0.164581150E+01  0.251073327E+01
   C -0.188089637E+01  0.165460506E+00  0.249888990E+01
   C  0.176688989E+01 -0.452872203E+00  0.252132924E+01
   H -0.518516390E+01  0.853658886E+01  0.261395883E+01
   H  0.521964721E+01  0.851854057E+01  0.251212347E+01
   H -0.107201952E+02 -0.117595020E+01  0.257397579E+01
   H  0.106488316E+02 -0.271406971E+01  0.242681708E+01
  Xx  0.212115972E+03 -0.399137070E+03 -0.237543319E+03
    11
 # iter = 31000  time[fs]=31.00000
   N -0.823468281E+00 -0.215377668E+01  0.249569327E+01
   N -0.240883030E+03  0.453527377E+03 -0.121375957E+04
   C -0.127996133E+01  0.144398087E+01  0.251730604E+01
   C  0.115688197E+01  0.164513986E+01  0.251081987E+01
   C -0.188105362E+01  0.171382539E+00  0.249904554E+01
   C  0.176883606E+01 -0.453531161E+00  0.252136558E+01
   H -0.522999606E+01  0.860934416E+01  0.261511778E+01
   H  0.526622272E+01  0.859104239E+01  0.251214734E+01
   H -0.108142167E+02 -0.119282063E+01  0.257462369E+01
   H  0.107411568E+02 -0.274650304E+01  0.242601897E+01
  Xx  0.213856363E+03 -0.402412715E+03 -0.239519047E+03
    11
 # iter = 31250  time[fs]=31.25000
   N -0.826058713E+00 -0.215994304E+01  0.249548235E+01
   N -0.242854934E+03  0.457239253E+03 -0.122368848E+04
   C -0.128509434E+01  0.143736045E+01  0.251721600E+01
   C  0.115919252E+01  0.164438982E+01  0.251090297E+01
   C -0.188117917E+01  0.177367047E+00  0.249916670E+01
   C  0.177075278E+01 -0.454085062E+00  0.252138801E+01
   H -0.527496336E+01  0.868229247E+01  0.261627954E+01
   H  0.531294668E+01  0.866373214E+01  0.251216954E+01
   H -0.109084340E+02 -0.120977345E+01  0.257527239E+01
   H  0.108336640E+02 -0.277903081E+01  0.242521957E+01
  Xx  0.215596754E+03 -0.405688359E+03 -0.241494774E+03
    11
 # iter = 31500  time[fs]=31.50000
   N -0.828597196E+00 -0.216611546E+01  0.249527652E+01
   N -0.244826839E+03  0.460951130E+03 -0.123361739E+04
   C -0.129024079E+01  0.143065635E+01  0.251713004E+01
   C  0.116148661E+01  0.164352905E+01  0.251098444E+01
   C -0.188120927E+01  0.183435919E+00  0.249927508E+01
   C  0.177262628E+01 -0.454572072E+00  0.252141499E+01
   H -0.532006167E+01  0.875542892E+01  0.261744338E+01
   H  0.535981520E+01  0.873660577E+01  0.251219013E+01
   H -0.110028462E+02 -0.122680615E+01  0.257592188E+01
   H  0.109263498E+02 -0.281165132E+01  0.242441906E+01
  Xx  0.217337146E+03 -0.408964004E+03 -0.243470501E+03
    11
 # iter = 31750  time[fs]=31.75000
   N -0.831072486E+00 -0.217228057E+01  0.249508439E+01
   N -0.246798744E+03  0.464663006E+03 -0.124354630E+04
   C -0.129533284E+01  0.142385047E+01  0.251703310E+01
   C  0.116374459E+01  0.164257003E+01  0.251107067E+01
   C -0.188123198E+01  0.189574703E+00  0.249940158E+01
   C  0.177449717E+01 -0.454961987E+00  0.252142640E+01
   H -0.536529020E+01  0.882875162E+01  0.261860931E+01
   H  0.540682556E+01  0.880965878E+01  0.251220939E+01
   H -0.110974502E+02 -0.124391668E+01  0.257657227E+01
   H  0.110192105E+02 -0.284436193E+01  0.242361711E+01
  Xx  0.219077537E+03 -0.412239648E+03 -0.245446229E+03
    11
 # iter = 32000  time[fs]=32.00000
   N -0.833504082E+00 -0.217845836E+01  0.249489971E+01
   N -0.248770649E+03  0.468374883E+03 -0.125347521E+04
   C -0.130036253E+01  0.141701174E+01  0.251693530E+01
   C  0.116599770E+01  0.164152834E+01  0.251112760E+01
   C -0.188124831E+01  0.195739359E+00  0.249952048E+01
   C  0.177632132E+01 -0.455280880E+00  0.252146802E+01
   H -0.541064860E+01  0.890225849E+01  0.261977779E+01
   H  0.545397648E+01  0.888288942E+01  0.251222776E+01
   H -0.111922445E+02 -0.126110547E+01  0.257722351E+01
   H  0.111122435E+02 -0.287716229E+01  0.242281355E+01
  Xx  0.220817928E+03 -0.415515293E+03 -0.247421956E+03
    11
 # iter = 32250  time[fs]=32.25000
   N -0.835891721E+00 -0.218468273E+01  0.249473386E+01
   N -0.250742554E+03  0.472086759E+03 -0.126340412E+04
   C -0.130534826E+01  0.141016118E+01  0.251681898E+01
   C  0.116824264E+01  0.164039982E+01  0.251118682E+01
   C -0.188124137E+01  0.201875232E+00  0.249965379E+01
   C  0.177811063E+01 -0.455508786E+00  0.252147731E+01
   H -0.545613892E+01  0.897594899E+01  0.262094902E+01
   H  0.550126812E+01  0.895629770E+01  0.251224569E+01
   H -0.112872234E+02 -0.127837314E+01  0.257787604E+01
   H  0.112054480E+02 -0.291005321E+01  0.242200811E+01
  Xx  0.222558319E+03 -0.418790937E+03 -0.249397684E+03
    11
 # iter = 32500  time[fs]=32.50000
   N -0.838218147E+00 -0.219092307E+01  0.249457064E+01
   N -0.252714458E+03  0.475798636E+03 -0.127333303E+04
   C -0.131025737E+01  0.140326698E+01  0.251671640E+01
   C  0.117046131E+01  0.163919030E+01  0.251125508E+01
   C -0.188125474E+01  0.208022311E+00  0.249977666E+01
   C  0.177986570E+01 -0.455675936E+00  0.252147915E+01
   H -0.550175746E+01  0.904981739E+01  0.262212313E+01
   H  0.554869712E+01  0.902988029E+01  0.251226360E+01
   H -0.113823845E+02 -0.129571637E+01  0.257852968E+01
   H  0.112988223E+02 -0.294303222E+01  0.242120105E+01
  Xx  0.224298710E+03 -0.422066582E+03 -0.251373411E+03
    11
 # iter = 32750  time[fs]=32.75000
   N -0.840496812E+00 -0.219717079E+01  0.249441145E+01
   N -0.254686363E+03  0.479510512E+03 -0.128326194E+04
   C -0.131509367E+01  0.139638071E+01  0.251659399E+01
   C  0.117265398E+01  0.163790853E+01  0.251133752E+01
   C -0.188124200E+01  0.214166042E+00  0.249991927E+01
   C  0.178158448E+01 -0.455755690E+00  0.252145991E+01
   H -0.554749838E+01  0.912385999E+01  0.262330004E+01
   H  0.559625800E+01  0.910362904E+01  0.251228151E+01
   H -0.114777267E+02 -0.131313237E+01  0.257918435E+01
   H  0.113923633E+02 -0.297609561E+01  0.242039241E+01
  Xx  0.226039101E+03 -0.425342226E+03 -0.253349139E+03
    11
 # iter = 33000  time[fs]=33.00000
   N -0.842735332E+00 -0.220342503E+01  0.249426435E+01
   N -0.256658268E+03  0.483222389E+03 -0.129319085E+04
   C -0.131984125E+01  0.138951496E+01  0.251650548E+01
   C  0.117483770E+01  0.163651491E+01  0.251142086E+01
   C -0.188128236E+01  0.220234350E+00  0.250002410E+01
   C  0.178327540E+01 -0.455763838E+00  0.252143482E+01
   H -0.559336326E+01  0.919807579E+01  0.262447992E+01
   H  0.564395284E+01  0.917754550E+01  0.251229966E+01
   H -0.115732447E+02 -0.133062170E+01  0.257983980E+01
   H  0.114860675E+02 -0.300924379E+01  0.241958214E+01
  Xx  0.227779492E+03 -0.428617871E+03 -0.255324866E+03
    11
 # iter = 33250  time[fs]=33.25000
   N -0.844928246E+00 -0.220967978E+01  0.249412221E+01
   N -0.258630173E+03  0.486934265E+03 -0.130311976E+04
   C -0.132449500E+01  0.138275573E+01  0.251640412E+01
   C  0.117701796E+01  0.163503112E+01  0.251146046E+01
   C -0.188135184E+01  0.226140637E+00  0.250014021E+01
   C  0.178493375E+01 -0.455682141E+00  0.252142767E+01
   H -0.563935053E+01  0.927246474E+01  0.262566282E+01
   H  0.569178057E+01  0.925162774E+01  0.251231728E+01
   H -0.116689370E+02 -0.134818428E+01  0.258049598E+01
   H  0.115799317E+02 -0.304247579E+01  0.241877029E+01
  Xx  0.229519884E+03 -0.431893515E+03 -0.257300593E+03
    11
 # iter = 33500  time[fs]=33.50000
   N -0.847091073E+00 -0.221596305E+01  0.249397958E+01
   N -0.260602077E+03  0.490646142E+03 -0.131304867E+04
   C -0.132903602E+01  0.137611086E+01  0.251629630E+01
   C  0.117917169E+01  0.163347306E+01  0.251151501E+01
   C -0.188146859E+01  0.231883154E+00  0.250025682E+01
   C  0.178655411E+01 -0.455562528E+00  0.252144899E+01
   H -0.568545914E+01  0.934702341E+01  0.262684923E+01
   H  0.573974074E+01  0.932587806E+01  0.251233494E+01
   H -0.117647988E+02 -0.136581934E+01  0.258115305E+01
   H  0.116739531E+02 -0.307579156E+01  0.241795745E+01
  Xx  0.231260275E+03 -0.435169160E+03 -0.259276321E+03
    11
 # iter = 33750  time[fs]=33.75000
   N -0.849222647E+00 -0.222226108E+01  0.249383305E+01
   N -0.262573982E+03  0.494358018E+03 -0.132297758E+04
   C -0.133349496E+01  0.136963356E+01  0.251618333E+01
   C  0.118129730E+01  0.163185503E+01  0.251154684E+01
   C -0.188162473E+01  0.237442643E+00  0.250038381E+01
   C  0.178812224E+01 -0.455377745E+00  0.252147621E+01
   H -0.573168516E+01  0.942174551E+01  0.262803843E+01
   H  0.578782920E+01  0.940029301E+01  0.251235214E+01
   H -0.118608294E+02 -0.138352402E+01  0.258181081E+01
   H  0.117681316E+02 -0.310918946E+01  0.241714333E+01
  Xx  0.233000666E+03 -0.438444804E+03 -0.261252048E+03
    11
 # iter = 34000  time[fs]=34.00000
   N -0.851326098E+00 -0.222857974E+01  0.249368304E+01
   N -0.264545887E+03  0.498069895E+03 -0.133290649E+04
   C -0.133777899E+01  0.136336017E+01  0.251605784E+01
   C  0.118341465E+01  0.163018026E+01  0.251163289E+01
   C -0.188185601E+01  0.242785174E+00  0.250051098E+01
   C  0.178965199E+01 -0.455169977E+00  0.252146747E+01
   H -0.577802750E+01  0.949663247E+01  0.262923023E+01
   H  0.583604514E+01  0.947486843E+01  0.251236900E+01
   H -0.119570282E+02 -0.140129840E+01  0.258246913E+01
   H  0.118624625E+02 -0.314266744E+01  0.241632785E+01
  Xx  0.234741057E+03 -0.441720449E+03 -0.263227776E+03
    11
 # iter = 34250  time[fs]=34.25000
   N -0.853418112E+00 -0.223491325E+01  0.249353956E+01
   N -0.266517792E+03  0.501781771E+03 -0.134283540E+04
   C -0.134192926E+01  0.135732486E+01  0.251591398E+01
   C  0.118553352E+01  0.162843499E+01  0.251173058E+01
   C -0.188213533E+01  0.247878649E+00  0.250065376E+01
   C  0.179112649E+01 -0.454918400E+00  0.252146415E+01
   H -0.582448509E+01  0.957168040E+01  0.263042425E+01
   H  0.588438651E+01  0.954960443E+01  0.251238548E+01
   H -0.120533898E+02 -0.141914111E+01  0.258312831E+01
   H  0.119569445E+02 -0.317622515E+01  0.241551098E+01
  Xx  0.236481448E+03 -0.444996093E+03 -0.265203503E+03
    11
 # iter = 34500  time[fs]=34.50000
   N -0.855492220E+00 -0.224123828E+01  0.249340119E+01
   N -0.268489697E+03  0.505493648E+03 -0.135276431E+04
   C -0.134594361E+01  0.135153474E+01  0.251576973E+01
   C  0.118761447E+01  0.162665109E+01  0.251181036E+01
   C -0.188255457E+01  0.252687840E+00  0.250078672E+01
   C  0.179258854E+01 -0.454630324E+00  0.252147816E+01
   H -0.587105724E+01  0.964688295E+01  0.263162056E+01
   H  0.593285170E+01  0.962450294E+01  0.251240134E+01
   H -0.121499076E+02 -0.143705009E+01  0.258378792E+01
   H  0.120515772E+02 -0.320986266E+01  0.241469255E+01
  Xx  0.238221839E+03 -0.448271738E+03 -0.267179231E+03
    11
 # iter = 34750  time[fs]=34.75000
   N -0.857536746E+00 -0.224755893E+01  0.249327373E+01
   N -0.270461601E+03  0.509205524E+03 -0.136269322E+04
   C -0.134976050E+01  0.134609638E+01  0.251562635E+01
   C  0.118966963E+01  0.162475174E+01  0.251186833E+01
   C -0.188308235E+01  0.257098726E+00  0.250093412E+01
   C  0.179402267E+01 -0.454262404E+00  0.252148760E+01
   H -0.591774233E+01  0.972224327E+01  0.263281957E+01
   H  0.598144000E+01  0.969955762E+01  0.251241661E+01
   H -0.122465840E+02 -0.145502637E+01  0.258444847E+01
   H  0.121463559E+02 -0.324357817E+01  0.241387283E+01
  Xx  0.239962230E+03 -0.451547382E+03 -0.269154958E+03
    11
 # iter = 35000  time[fs]=35.00000
   N -0.859550053E+00 -0.225385256E+01  0.249314953E+01
   N -0.272433506E+03  0.512917401E+03 -0.137262213E+04
   C -0.135330686E+01  0.134108413E+01  0.251548747E+01
   C  0.119168455E+01  0.162277763E+01  0.251191218E+01
   C -0.188379482E+01  0.261067196E+00  0.250107619E+01
   C  0.179544659E+01 -0.453838935E+00  0.252153838E+01
   H -0.596453659E+01  0.979775849E+01  0.263402145E+01
   H  0.603014774E+01  0.977476362E+01  0.251243161E+01
   H -0.123434181E+02 -0.147306790E+01  0.258511010E+01
   H  0.122412768E+02 -0.327736892E+01  0.241305209E+01
  Xx  0.241702622E+03 -0.454823027E+03 -0.271130686E+03
    11
 # iter = 35250  time[fs]=35.25000
   N -0.861538964E+00 -0.226011193E+01  0.249303659E+01
   N -0.274405411E+03  0.516629277E+03 -0.138255104E+04
   C -0.135663376E+01  0.133648930E+01  0.251534998E+01
   C  0.119369984E+01  0.162073241E+01  0.251196432E+01
   C -0.188468439E+01  0.264592016E+00  0.250120147E+01
   C  0.179683733E+01 -0.453338137E+00  0.252155404E+01
   H -0.601143735E+01  0.987342301E+01  0.263522626E+01
   H  0.607897195E+01  0.985011746E+01  0.251244632E+01
   H -0.124404047E+02 -0.149117202E+01  0.258577260E+01
   H  0.123363397E+02 -0.331123344E+01  0.241223027E+01
  Xx  0.243443013E+03 -0.458098671E+03 -0.273106413E+03
    11
 # iter = 35500  time[fs]=35.50000
   N -0.863525413E+00 -0.226634429E+01  0.249293252E+01
   N -0.276377316E+03  0.520341154E+03 -0.139247996E+04
   C -0.135970416E+01  0.133229211E+01  0.251521726E+01
   C  0.119574289E+01  0.161862296E+01  0.251198583E+01
   C -0.188577812E+01  0.267661180E+00  0.250131907E+01
   C  0.179818802E+01 -0.452788671E+00  0.252160672E+01
   H -0.605844517E+01  0.994923728E+01  0.263643424E+01
   H  0.612791292E+01  0.992561756E+01  0.251246111E+01
   H -0.125375424E+02 -0.150933913E+01  0.258643620E+01
   H  0.124315420E+02 -0.334517146E+01  0.241140759E+01
  Xx  0.245183404E+03 -0.461374316E+03 -0.275082140E+03
    11
 # iter = 35750  time[fs]=35.75000
   N -0.865514186E+00 -0.227254819E+01  0.249283001E+01
   N -0.278349220E+03  0.524053030E+03 -0.140240887E+04
   C -0.136247158E+01  0.132852256E+01  0.251509419E+01
   C  0.119777213E+01  0.161646140E+01  0.251204940E+01
   C -0.188707724E+01  0.270251326E+00  0.250141737E+01
   C  0.179952107E+01 -0.452172715E+00  0.252163155E+01
   H -0.610555877E+01  0.100252012E+02  0.263764514E+01
   H  0.617696952E+01  0.100012607E+02  0.251247611E+01
   H -0.126348300E+02 -0.152756937E+01  0.258710092E+01
   H  0.125268805E+02 -0.337918196E+01  0.241058380E+01
  Xx  0.246923795E+03 -0.464649960E+03 -0.277057868E+03
    11
 # iter = 36000  time[fs]=36.00000
   N -0.867478557E+00 -0.227873248E+01  0.249273803E+01
   N -0.280321125E+03  0.527764907E+03 -0.141233778E+04
   C -0.136496226E+01  0.132519768E+01  0.251497685E+01
   C  0.119978358E+01  0.161424082E+01  0.251211897E+01
   C -0.188860571E+01  0.272381228E+00  0.250150010E+01
   C  0.180083127E+01 -0.451488315E+00  0.252164116E+01
   H -0.615277546E+01  0.101013102E+02  0.263885832E+01
   H  0.622613887E+01  0.100770453E+02  0.251249093E+01
   H -0.127322643E+02 -0.154586062E+01  0.258776660E+01
   H  0.126223522E+02 -0.341326366E+01  0.240975889E+01
  Xx  0.248664186E+03 -0.467925605E+03 -0.279033595E+03
    11
 # iter = 36250  time[fs]=36.25000
   N -0.869435891E+00 -0.228489409E+01  0.249265655E+01
   N -0.282293030E+03  0.531476783E+03 -0.142226669E+04
   C -0.136716102E+01  0.132234854E+01  0.251486762E+01
   C  0.120178774E+01  0.161197469E+01  0.251218173E+01
   C -0.189036839E+01  0.274012161E+00  0.250156972E+01
   C  0.180212917E+01 -0.450716748E+00  0.252165923E+01
   H -0.620009166E+01  0.101775614E+02  0.264007352E+01
   H  0.627541763E+01  0.101529669E+02  0.251250515E+01
   H -0.128298451E+02 -0.156421062E+01  0.258843286E+01
   H  0.127179553E+02 -0.344741388E+01  0.240893279E+01
  Xx  0.250404577E+03 -0.471201249E+03 -0.281009323E+03
    11
 # iter = 36500  time[fs]=36.50000
   N -0.871398586E+00 -0.229103463E+01  0.249258259E+01
   N -0.284264935E+03  0.535188660E+03 -0.143219560E+04
   C -0.136900554E+01  0.132003334E+01  0.251477842E+01
   C  0.120378900E+01  0.160960644E+01  0.251225557E+01
   C -0.189238391E+01  0.275118125E+00  0.250162728E+01
   C  0.180338963E+01 -0.449860678E+00  0.252166646E+01
   H -0.624750564E+01  0.102539545E+02  0.264129062E+01
   H  0.632480490E+01  0.102290219E+02  0.251251826E+01
   H -0.129275723E+02 -0.158261911E+01  0.258909965E+01
   H  0.128136873E+02 -0.348163082E+01  0.240810543E+01
  Xx  0.252144968E+03 -0.474476894E+03 -0.282985050E+03
    11
 # iter = 36750  time[fs]=36.75000
   N -0.873360148E+00 -0.229713571E+01  0.249252224E+01
   N -0.286236840E+03  0.538900536E+03 -0.144212451E+04
   C -0.137053182E+01  0.131825837E+01  0.251471075E+01
   C  0.120577303E+01  0.160719497E+01  0.251227100E+01
   C -0.189464915E+01  0.275664094E+00  0.250166497E+01
   C  0.180462620E+01 -0.448931968E+00  0.252170635E+01
   H -0.629501740E+01  0.103304863E+02  0.264250941E+01
   H  0.637429901E+01  0.103052117E+02  0.251253040E+01
   H -0.130254409E+02 -0.160108560E+01  0.258976691E+01
   H  0.129095480E+02 -0.351591532E+01  0.240727672E+01
  Xx  0.253885360E+03 -0.477752539E+03 -0.284960778E+03
    11
 # iter = 37000  time[fs]=37.00000
   N -0.875331339E+00 -0.230318381E+01  0.249248100E+01
   N -0.288208744E+03  0.542612413E+03 -0.145205342E+04
   C -0.137176784E+01  0.131700037E+01  0.251464700E+01
   C  0.120774024E+01  0.160471980E+01  0.251231102E+01
   C -0.189715669E+01  0.275624195E+00  0.250168559E+01
   C  0.180583444E+01 -0.447928580E+00  0.252171664E+01
   H -0.634262763E+01  0.104071558E+02  0.264373043E+01
   H  0.642389968E+01  0.103815376E+02  0.251254203E+01
   H -0.131234473E+02 -0.161961033E+01  0.259043471E+01
   H  0.130055366E+02 -0.355026804E+01  0.240644690E+01
  Xx  0.255625751E+03 -0.481028183E+03 -0.286936505E+03
    11
 # iter = 37250  time[fs]=37.25000
   N -0.877333346E+00 -0.230918479E+01  0.249245205E+01
   N -0.290180649E+03  0.546324289E+03 -0.146198233E+04
   C -0.137268454E+01  0.131625872E+01  0.251458268E+01
   C  0.120972002E+01  0.160220160E+01  0.251233744E+01
   C -0.189990593E+01  0.275009299E+00  0.250169290E+01
   C  0.180699451E+01 -0.446876973E+00  0.252174257E+01
   H -0.639033449E+01  0.104839618E+02  0.264495357E+01
   H  0.647360522E+01  0.104579954E+02  0.251255334E+01
   H -0.132215911E+02 -0.163819236E+01  0.259110328E+01
   H  0.131016498E+02 -0.358468694E+01  0.240561597E+01
  Xx  0.257366142E+03 -0.484303828E+03 -0.288912233E+03
    11
 # iter = 37500  time[fs]=37.50000
   N -0.879363619E+00 -0.231512399E+01  0.249243364E+01
   N -0.292152554E+03  0.550036166E+03 -0.147191124E+04
   C -0.137326429E+01  0.131608234E+01  0.251451072E+01
   C  0.121169180E+01  0.159959346E+01  0.251240683E+01
   C -0.190292217E+01  0.273812062E+00  0.250170378E+01
   C  0.180813277E+01 -0.445740765E+00  0.252173397E+01
   H -0.643813463E+01  0.105608999E+02  0.264617925E+01
   H  0.652341284E+01  0.105345821E+02  0.251256495E+01
   H -0.133198695E+02 -0.165682935E+01  0.259177277E+01
   H  0.131978872E+02 -0.361917032E+01  0.240478394E+01
  Xx  0.259106533E+03 -0.487579472E+03 -0.290887960E+03
    11
 # iter = 37750  time[fs]=37.75000
   N -0.881399849E+00 -0.232101625E+01  0.249241905E+01
   N -0.294124459E+03  0.553748042E+03 -0.148184015E+04
   C -0.137351283E+01  0.131650274E+01  0.251445735E+01
   C  0.121367039E+01  0.159692967E+01  0.251247693E+01
   C -0.190619439E+01  0.272031106E+00  0.250170361E+01
   C  0.180922367E+01 -0.444534329E+00  0.252169785E+01
   H -0.648602603E+01  0.106379678E+02  0.264740715E+01
   H  0.657332065E+01  0.106112949E+02  0.251257655E+01
   H -0.134182812E+02 -0.167552060E+01  0.259244321E+01
   H  0.132942457E+02 -0.365371725E+01  0.240395079E+01
  Xx  0.260846924E+03 -0.490855117E+03 -0.292863687E+03
    11
 # iter = 38000  time[fs]=38.00000
   N -0.883449259E+00 -0.232685232E+01  0.249242246E+01
   N -0.296096363E+03  0.557459919E+03 -0.149176906E+04
   C -0.137341513E+01  0.131745838E+01  0.251439550E+01
   C  0.121561758E+01  0.159417163E+01  0.251253230E+01
   C -0.190973744E+01  0.269691240E+00  0.250170679E+01
   C  0.181027696E+01 -0.443243224E+00  0.252167132E+01
   H -0.653400892E+01  0.107151653E+02  0.264863718E+01
   H  0.662332839E+01  0.106881341E+02  0.251258798E+01
   H -0.135168246E+02 -0.169426655E+01  0.259311440E+01
   H  0.133907241E+02 -0.368832746E+01  0.240311653E+01
  Xx  0.262587315E+03 -0.494130761E+03 -0.294839415E+03
    11
 # iter = 38250  time[fs]=38.25000
   N -0.885520316E+00 -0.233263210E+01  0.249243858E+01
   N -0.298068268E+03  0.561171795E+03 -0.150169797E+04
   C -0.137307323E+01  0.131889236E+01  0.251433543E+01
   C  0.121759087E+01  0.159138713E+01  0.251258973E+01
   C -0.191346802E+01  0.266832801E+00  0.250170246E+01
   C  0.181128025E+01 -0.441911939E+00  0.252164738E+01
   H -0.658208353E+01  0.107924903E+02  0.264986916E+01
   H  0.667343604E+01  0.107650997E+02  0.251259892E+01
   H -0.136154957E+02 -0.171306678E+01  0.259378616E+01
   H  0.134873224E+02 -0.372300120E+01  0.240228116E+01
  Xx  0.264327706E+03 -0.497406406E+03 -0.296815142E+03
    11
 # iter = 38500  time[fs]=38.50000
   N -0.887624582E+00 -0.233836486E+01  0.249245919E+01
   N -0.300040173E+03  0.564883672E+03 -0.151162688E+04
   C -0.137248697E+01  0.132074505E+01  0.251425342E+01
   C  0.121953335E+01  0.158853474E+01  0.251262365E+01
   C -0.191741544E+01  0.263531995E+00  0.250171582E+01
   C  0.181226191E+01 -0.440533407E+00  0.252162665E+01
   H -0.663024841E+01  0.108699393E+02  0.265110275E+01
   H  0.672364233E+01  0.108421920E+02  0.251260926E+01
   H -0.137142913E+02 -0.173191959E+01  0.259445823E+01
   H  0.135840390E+02 -0.375773807E+01  0.240144453E+01
  Xx  0.266068097E+03 -0.500682050E+03 -0.298790870E+03
    11
 # iter = 38750  time[fs]=38.75000
   N -0.889753215E+00 -0.234405172E+01  0.249248832E+01
   N -0.302012078E+03  0.568595548E+03 -0.152155579E+04
   C -0.137167660E+01  0.132302657E+01  0.251417774E+01
   C  0.122144428E+01  0.158564204E+01  0.251268876E+01
   C -0.192152839E+01  0.259813104E+00  0.250171606E+01
   C  0.181322206E+01 -0.439107682E+00  0.252159899E+01
   H -0.667850084E+01  0.109475111E+02  0.265233824E+01
   H  0.677394434E+01  0.109194054E+02  0.251261937E+01
   H -0.138132116E+02 -0.175082410E+01  0.259513053E+01
   H  0.136808701E+02 -0.379253577E+01  0.240060676E+01
  Xx  0.267808489E+03 -0.503957695E+03 -0.300766597E+03
    11
 # iter = 39000  time[fs]=39.00000
   N -0.891889833E+00 -0.234969762E+01  0.249252408E+01
   N -0.303983983E+03  0.572307425E+03 -0.153148470E+04
   C -0.137058513E+01  0.132568202E+01  0.251410356E+01
   C  0.122333807E+01  0.158267807E+01  0.251273273E+01
   C -0.192583845E+01  0.255726823E+00  0.250171954E+01
   C  0.181415355E+01 -0.437624248E+00  0.252157063E+01
   H -0.672683946E+01  0.110252058E+02  0.265357551E+01
   H  0.682434073E+01  0.109967353E+02  0.251262915E+01
   H -0.139122572E+02 -0.176977986E+01  0.259580306E+01
   H  0.137778125E+02 -0.382739249E+01  0.239976788E+01
  Xx  0.269548880E+03 -0.507233339E+03 -0.302742325E+03
    11
 # iter = 39250  time[fs]=39.25000
   N -0.894043067E+00 -0.235529682E+01  0.249257686E+01
   N -0.305955887E+03  0.576019301E+03 -0.154141361E+04
   C -0.136934069E+01  0.132867067E+01  0.251402250E+01
   C  0.122521573E+01  0.157965009E+01  0.251279036E+01
   C -0.193026583E+01  0.251309237E+00  0.250171800E+01
   C  0.181507711E+01 -0.436070395E+00  0.252152599E+01
   H -0.677526297E+01  0.111030206E+02  0.265481499E+01
   H  0.687483038E+01  0.110741816E+02  0.251263892E+01
   H -0.140114257E+02 -0.178878573E+01  0.259647608E+01
   H  0.138748660E+02 -0.386230754E+01  0.239892789E+01
  Xx  0.271289271E+03 -0.510508984E+03 -0.304718052E+03
    11
 # iter = 39500  time[fs]=39.50000
   N -0.896214132E+00 -0.236085859E+01  0.249263650E+01
   N -0.307927792E+03  0.579731178E+03 -0.155134252E+04
   C -0.136793174E+01  0.133191123E+01  0.251393564E+01
   C  0.122710447E+01  0.157655169E+01  0.251284747E+01
   C -0.193485111E+01  0.246610512E+00  0.250171502E+01
   C  0.181593504E+01 -0.434455593E+00  0.252148508E+01
   H -0.682377213E+01  0.111809553E+02  0.265605649E+01
   H  0.692541299E+01  0.111517452E+02  0.251264860E+01
   H -0.141107143E+02 -0.180784167E+01  0.259714964E+01
   H  0.139720301E+02 -0.389728126E+01  0.239808678E+01
  Xx  0.273029662E+03 -0.513784628E+03 -0.306693780E+03
    11
 # iter = 39750  time[fs]=39.75000
   N -0.898410011E+00 -0.236637653E+01  0.249269909E+01
   N -0.309899697E+03  0.583443054E+03 -0.156127143E+04
   C -0.136636853E+01  0.133544774E+01  0.251386471E+01
   C  0.122895146E+01  0.157336754E+01  0.251289399E+01
   C -0.193954420E+01  0.241595489E+00  0.250171433E+01
   C  0.181680425E+01 -0.432770937E+00  0.252144231E+01
   H -0.687236569E+01  0.112590093E+02  0.265729998E+01
   H  0.697608689E+01  0.112294242E+02  0.251265803E+01
   H -0.142101219E+02 -0.182694757E+01  0.259782358E+01
   H  0.140693016E+02 -0.393231284E+01  0.239724457E+01
  Xx  0.274770053E+03 -0.517060273E+03 -0.308669507E+03
    11
 # iter = 40000  time[fs]=40.00000
   N -0.900633712E+00 -0.237189019E+01  0.249277655E+01
   N -0.311871602E+03  0.587154931E+03 -0.157120034E+04
   C -0.136461109E+01  0.133922732E+01  0.251380837E+01
   C  0.123078367E+01  0.157009594E+01  0.251292877E+01
   C -0.194438273E+01  0.236343680E+00  0.250169217E+01
   C  0.181764770E+01 -0.431034736E+00  0.252136958E+01
   H -0.692104259E+01  0.113371793E+02  0.265854494E+01
   H  0.702685124E+01  0.113072171E+02  0.251266688E+01
   H -0.143096453E+02 -0.184610281E+01  0.259849762E+01
   H  0.141666796E+02 -0.396740164E+01  0.239640125E+01
  Xx  0.276510444E+03 -0.520335917E+03 -0.310645234E+03
    11
 # iter = 40250  time[fs]=40.25000
   N -0.902900875E+00 -0.237738150E+01  0.249285984E+01
   N -0.313843506E+03  0.590866807E+03 -0.158112925E+04
   C -0.136275747E+01  0.134322125E+01  0.251375044E+01
   C  0.123259453E+01  0.156673149E+01  0.251296311E+01
   C -0.194927689E+01  0.230890316E+00  0.250166967E+01
   C  0.181846423E+01 -0.429191122E+00  0.252132996E+01
   H -0.696979991E+01  0.114154617E+02  0.265979164E+01
   H  0.707770442E+01  0.113851210E+02  0.251267542E+01
   H -0.144092842E+02 -0.186530532E+01  0.259917195E+01
   H  0.142641637E+02 -0.400254613E+01  0.239555681E+01
  Xx  0.278250835E+03 -0.523611562E+03 -0.312620962E+03
    11
 # iter = 40500  time[fs]=40.50000
   N -0.905216180E+00 -0.238286068E+01  0.249294802E+01
   N -0.315815411E+03  0.594578684E+03 -0.159105816E+04
   C -0.136076326E+01  0.134733030E+01  0.251371451E+01
   C  0.123441436E+01  0.156329709E+01  0.251302101E+01
   C -0.195424426E+01  0.225302320E+00  0.250161803E+01
   C  0.181923542E+01 -0.427282979E+00  0.252123681E+01
   H -0.701863681E+01  0.114938551E+02  0.266103972E+01
   H  0.712864480E+01  0.114631336E+02  0.251268344E+01
   H -0.145090385E+02 -0.188455475E+01  0.259984640E+01
   H  0.143617503E+02 -0.403774489E+01  0.239471127E+01
  Xx  0.279991227E+03 -0.526887206E+03 -0.314596689E+03
    11
 # iter = 40750  time[fs]=40.75000
   N -0.907583092E+00 -0.238833554E+01  0.249303848E+01
   N -0.317787316E+03  0.598290560E+03 -0.160098707E+04
   C -0.135868330E+01  0.135158881E+01  0.251366659E+01
   C  0.123624827E+01  0.155979532E+01  0.251306695E+01
   C -0.195923293E+01  0.219559671E+00  0.250157454E+01
   C  0.181997264E+01 -0.425276334E+00  0.252116809E+01
   H -0.706755168E+01  0.115723596E+02  0.266228919E+01
   H  0.717967111E+01  0.115412528E+02  0.251269123E+01
   H -0.146089062E+02 -0.190385106E+01  0.260052101E+01
   H  0.144594391E+02 -0.407299712E+01  0.239386462E+01
  Xx  0.281731618E+03 -0.530162851E+03 -0.316572417E+03
    11
 # iter = 41000  time[fs]=41.00000
   N -0.910003078E+00 -0.239381988E+01  0.249312702E+01
   N -0.319759221E+03  0.602002437E+03 -0.161091598E+04
   C -0.135649720E+01  0.135596095E+01  0.251360610E+01
   C  0.123803674E+01  0.155622306E+01  0.251312506E+01
   C -0.196427510E+01  0.213670628E+00  0.250154385E+01
   C  0.182069499E+01 -0.423203186E+00  0.252109539E+01
   H -0.711654515E+01  0.116509738E+02  0.266354017E+01
   H  0.723078302E+01  0.116194793E+02  0.251269887E+01
   H -0.147088831E+02 -0.192319396E+01  0.260119562E+01
   H  0.145572300E+02 -0.410830415E+01  0.239301685E+01
  Xx  0.283472009E+03 -0.533438495E+03 -0.318548144E+03
    11
 # iter = 41250  time[fs]=41.25000
   N -0.912478194E+00 -0.239932019E+01  0.249322249E+01
   N -0.321731126E+03  0.605714313E+03 -0.162084489E+04
   C -0.135426314E+01  0.136043439E+01  0.251351768E+01
   C  0.123982614E+01  0.155257011E+01  0.251318474E+01
   C -0.196931586E+01  0.207674963E+00  0.250154237E+01
   C  0.182138442E+01 -0.421052865E+00  0.252101841E+01
   H -0.716561639E+01  0.117296948E+02  0.266479271E+01
   H  0.728197933E+01  0.116978124E+02  0.251270650E+01
   H -0.148089666E+02 -0.194258262E+01  0.260187043E+01
   H  0.146551212E+02 -0.414366477E+01  0.239216798E+01
  Xx  0.285212400E+03 -0.536714140E+03 -0.320523872E+03
    11
 # iter = 41500  time[fs]=41.50000
   N -0.915017258E+00 -0.240481394E+01  0.249331715E+01
   N -0.323703030E+03  0.609426190E+03 -0.163077380E+04
   C -0.135201289E+01  0.136493648E+01  0.251343714E+01
   C  0.124159394E+01  0.154884682E+01  0.251322413E+01
   C -0.197432411E+01  0.201632644E+00  0.250153106E+01
   C  0.182205333E+01 -0.418851763E+00  0.252094203E+01
   H -0.721476393E+01  0.118085223E+02  0.266604687E+01
   H  0.733325867E+01  0.117762505E+02  0.251271414E+01
   H -0.149091567E+02 -0.196201605E+01  0.260254555E+01
   H  0.147531102E+02 -0.417907812E+01  0.239131800E+01
  Xx  0.286952791E+03 -0.539989784E+03 -0.322499599E+03
    11
 # iter = 41750  time[fs]=41.75000
   N -0.917620757E+00 -0.241031452E+01  0.249341246E+01
   N -0.325674935E+03  0.613138066E+03 -0.164070271E+04
   C -0.134972148E+01  0.136941066E+01  0.251331464E+01
   C  0.124336269E+01  0.154503608E+01  0.251328884E+01
   C -0.197931068E+01  0.195610915E+00  0.250157753E+01
   C  0.182266731E+01 -0.416561474E+00  0.252084920E+01
   H -0.726398689E+01  0.118874565E+02  0.266730285E+01
   H  0.738462017E+01  0.118547908E+02  0.251272178E+01
   H -0.150094533E+02 -0.198149390E+01  0.260322134E+01
   H  0.148511957E+02 -0.421454263E+01  0.239046690E+01
  Xx  0.288693182E+03 -0.543265429E+03 -0.324475327E+03
    11
 # iter = 42000  time[fs]=42.00000
   N -0.920295486E+00 -0.241583930E+01  0.249350092E+01
   N -0.327646840E+03  0.616849943E+03 -0.165063162E+04
   C -0.134741766E+01  0.137388622E+01  0.251322202E+01
   C  0.124511049E+01  0.154112267E+01  0.251334148E+01
   C -0.198421046E+01  0.189608818E+00  0.250159059E+01
   C  0.182327001E+01 -0.414174435E+00  0.252077153E+01
   H -0.731328376E+01  0.119664959E+02  0.266856050E+01
   H  0.743606262E+01  0.119334306E+02  0.251272942E+01
   H -0.151098561E+02 -0.200101582E+01  0.260389739E+01
   H  0.149493746E+02 -0.425005821E+01  0.238961470E+01
  Xx  0.290433573E+03 -0.546541073E+03 -0.326451054E+03
    11
 # iter = 42250  time[fs]=42.25000
   N -0.923049101E+00 -0.242138412E+01  0.249358218E+01
   N -0.329618745E+03  0.620561819E+03 -0.166056053E+04
   C -0.134504676E+01  0.137829010E+01  0.251310168E+01
   C  0.124682197E+01  0.153711130E+01  0.251341755E+01
   C -0.198907162E+01  0.183671967E+00  0.250163718E+01
   C  0.182382405E+01 -0.411699012E+00  0.252067499E+01
   H -0.736265390E+01  0.120456376E+02  0.266981963E+01
   H  0.748758501E+01  0.120121704E+02  0.251273705E+01
   H -0.152103617E+02 -0.202058109E+01  0.260457366E+01
   H  0.150476469E+02 -0.428562487E+01  0.238876138E+01
  Xx  0.292173965E+03 -0.549816718E+03 -0.328426781E+03
    11
 # iter = 42500  time[fs]=42.50000
   N -0.925889149E+00 -0.242696294E+01  0.249366558E+01
   N -0.331590649E+03  0.624273695E+03 -0.167048945E+04
   C -0.134269879E+01  0.138262067E+01  0.251300049E+01
   C  0.124852074E+01  0.153303271E+01  0.251350804E+01
   C -0.199386320E+01  0.177816146E+00  0.250164488E+01
   C  0.182435208E+01 -0.409147206E+00  0.252056453E+01
   H -0.741209660E+01  0.121248814E+02  0.267108014E+01
   H  0.753918621E+01  0.120910090E+02  0.251274430E+01
   H -0.153109694E+02 -0.204018905E+01  0.260525006E+01
   H  0.151460123E+02 -0.432124193E+01  0.238790696E+01
  Xx  0.293914356E+03 -0.553092362E+03 -0.330402509E+03
    11
 # iter = 42750  time[fs]=42.75000
   N -0.928802655E+00 -0.243257818E+01  0.249375471E+01
   N -0.333562554E+03  0.627985572E+03 -0.168041836E+04
   C -0.134035762E+01  0.138687137E+01  0.251289274E+01
   C  0.125019433E+01  0.152887458E+01  0.251356842E+01
   C -0.199859564E+01  0.172036659E+00  0.250167307E+01
   C  0.182484871E+01 -0.406525281E+00  0.252047958E+01
   H -0.746161116E+01  0.122042256E+02  0.267234208E+01
   H  0.759086512E+01  0.121699453E+02  0.251275123E+01
   H -0.154116769E+02 -0.205983946E+01  0.260592664E+01
   H  0.152444707E+02 -0.435690889E+01  0.238705142E+01
  Xx  0.295654747E+03 -0.556368007E+03 -0.332378236E+03
    11
 # iter = 43000  time[fs]=43.00000
   N -0.931787888E+00 -0.243822044E+01  0.249384966E+01
   N -0.335534459E+03  0.631697448E+03 -0.169034727E+04
   C -0.133796261E+01  0.139101534E+01  0.251273801E+01
   C  0.125185789E+01  0.152463900E+01  0.251363743E+01
   C -0.200329196E+01  0.166342997E+00  0.250175347E+01
   C  0.182531795E+01 -0.403804412E+00  0.252037316E+01
   H -0.751119648E+01  0.122836708E+02  0.267360514E+01
   H  0.764262086E+01  0.122489768E+02  0.251275790E+01
   H -0.155124846E+02 -0.207953229E+01  0.260660321E+01
   H  0.153430186E+02 -0.439262427E+01  0.238619478E+01
  Xx  0.297395138E+03 -0.559643651E+03 -0.334353964E+03
    11
 # iter = 43250  time[fs]=43.25000
   N -0.934864519E+00 -0.244388010E+01  0.249394459E+01
   N -0.337506364E+03  0.635409325E+03 -0.170027618E+04
   C -0.133558028E+01  0.139504733E+01  0.251259121E+01
   C  0.125351074E+01  0.152029555E+01  0.251368937E+01
   C -0.200789293E+01  0.160742992E+00  0.250181395E+01
   C  0.182575390E+01 -0.401005055E+00  0.252029359E+01
   H -0.756085065E+01  0.123632136E+02  0.267486931E+01
   H  0.769445198E+01  0.123281015E+02  0.251276457E+01
   H -0.156133910E+02 -0.209926625E+01  0.260727979E+01
   H  0.154416553E+02 -0.442838630E+01  0.238533702E+01
  Xx  0.299135529E+03 -0.562919296E+03 -0.336329691E+03
    11
 # iter = 43500  time[fs]=43.50000
   N -0.938021604E+00 -0.244955364E+01  0.249403939E+01
   N -0.339478268E+03  0.639121201E+03 -0.171020509E+04
   C -0.133324525E+01  0.139895082E+01  0.251242301E+01
   C  0.125513946E+01  0.151588378E+01  0.251376158E+01
   C -0.201238010E+01  0.155257085E+00  0.250191043E+01
   C  0.182614503E+01 -0.398134420E+00  0.252019237E+01
   H -0.761057223E+01  0.124428505E+02  0.267613458E+01
   H  0.774635686E+01  0.124073195E+02  0.251277124E+01
   H -0.157143950E+02 -0.211904021E+01  0.260795636E+01
   H  0.155403808E+02 -0.446419497E+01  0.238447815E+01
  Xx  0.300875920E+03 -0.566194940E+03 -0.338305419E+03
    11
 # iter = 43750  time[fs]=43.75000
   N -0.941247595E+00 -0.245525587E+01  0.249413951E+01
   N -0.341450173E+03  0.642833078E+03 -0.172013400E+04
   C -0.133091297E+01  0.140271955E+01  0.251226606E+01
   C  0.125670395E+01  0.151138355E+01  0.251383731E+01
   C -0.201679931E+01  0.149900959E+00  0.250197832E+01
   C  0.182656635E+01 -0.395203046E+00  0.252007303E+01
   H -0.766036150E+01  0.125225840E+02  0.267740098E+01
   H  0.779833502E+01  0.124866308E+02  0.251277765E+01
   H -0.158154967E+02 -0.213885445E+01  0.260863293E+01
   H  0.156391926E+02 -0.450005026E+01  0.238361818E+01
  Xx  0.302616311E+03 -0.569470585E+03 -0.340281146E+03
    11
 # iter = 44000  time[fs]=44.00000
   N -0.944542887E+00 -0.246099650E+01  0.249424321E+01
   N -0.343422078E+03  0.646544954E+03 -0.173006291E+04
   C -0.132862773E+01  0.140632998E+01  0.251210326E+01
   C  0.125826954E+01  0.150680551E+01  0.251390997E+01
   C -0.202108832E+01  0.144655032E+00  0.250206614E+01
   C  0.182694645E+01 -0.392222809E+00  0.251996393E+01
   H -0.771021913E+01  0.126024131E+02  0.267866854E+01
   H  0.785038646E+01  0.125660353E+02  0.251278392E+01
   H -0.159166933E+02 -0.215870931E+01  0.260930951E+01
   H  0.157380888E+02 -0.453595219E+01  0.238275709E+01
  Xx  0.304356703E+03 -0.572746229E+03 -0.342256874E+03
    11
 # iter = 44250  time[fs]=44.25000
   N -0.947909724E+00 -0.246676855E+01  0.249435086E+01
   N -0.345393983E+03  0.650256831E+03 -0.173999182E+04
   C -0.132647148E+01  0.140975073E+01  0.251191490E+01
   C  0.125980374E+01  0.150214229E+01  0.251400040E+01
   C -0.202524851E+01  0.139552346E+00  0.250217930E+01
   C  0.182731633E+01 -0.389188183E+00  0.251982453E+01
   H -0.776014361E+01  0.126823355E+02  0.267993720E+01
   H  0.790251114E+01  0.126455326E+02  0.251278999E+01
   H -0.160179830E+02 -0.217860355E+01  0.260998608E+01
   H  0.158370693E+02 -0.457190069E+01  0.238189489E+01
  Xx  0.306097094E+03 -0.576021874E+03 -0.344232601E+03
    11
 # iter = 44500  time[fs]=44.50000
   N -0.951352602E+00 -0.247258057E+01  0.249446475E+01
   N -0.347365888E+03  0.653968707E+03 -0.174992073E+04
   C -0.132439285E+01  0.141292264E+01  0.251169211E+01
   C  0.126135404E+01  0.149738789E+01  0.251405447E+01
   C -0.202929281E+01  0.134636713E+00  0.250232424E+01
   C  0.182765949E+01 -0.386063436E+00  0.251970739E+01
   H -0.781013414E+01  0.127623511E+02  0.268120698E+01
   H  0.795470766E+01  0.127251186E+02  0.251279605E+01
   H -0.161193643E+02 -0.219853664E+01  0.261066272E+01
   H  0.159361330E+02 -0.460789428E+01  0.238103166E+01
  Xx  0.307837485E+03 -0.579297518E+03 -0.346208328E+03
    11
 # iter = 44750  time[fs]=44.75000
   N -0.954857367E+00 -0.247841506E+01  0.249457931E+01
   N -0.349337792E+03  0.657680584E+03 -0.175984964E+04
   C -0.132237818E+01  0.141585634E+01  0.251146633E+01
   C  0.126294056E+01  0.149251904E+01  0.251413256E+01
   C -0.203319154E+01  0.129933492E+00  0.250246447E+01
   C  0.182794143E+01 -0.382852533E+00  0.251959193E+01
   H -0.786018913E+01  0.128424599E+02  0.268247786E+01
   H  0.800697523E+01  0.128047896E+02  0.251280211E+01
   H -0.162208391E+02 -0.221850851E+01  0.261133953E+01
   H  0.160352767E+02 -0.464393177E+01  0.238016772E+01
  Xx  0.309577876E+03 -0.582573163E+03 -0.348184056E+03
    11
 # iter = 45000  time[fs]=45.00000
   N -0.958423343E+00 -0.248426306E+01  0.249469759E+01
   N -0.351309697E+03  0.661392460E+03 -0.176977855E+04
   C -0.132044717E+01  0.141852481E+01  0.251125137E+01
   C  0.126452938E+01  0.148752449E+01  0.251424296E+01
   C -0.203697918E+01  0.125441355E+00  0.250258548E+01
   C  0.182820055E+01 -0.379545573E+00  0.251943983E+01
   H -0.791030836E+01  0.129226592E+02  0.268374986E+01
   H  0.805931359E+01  0.128845454E+02  0.251280817E+01
   H -0.163224027E+02 -0.223851815E+01  0.261201636E+01
   H  0.161345003E+02 -0.468001283E+01  0.237930281E+01
  Xx  0.311318267E+03 -0.585848807E+03 -0.350159783E+03
    11
 # iter = 45250  time[fs]=45.25000
   N -0.962047428E+00 -0.249013077E+01  0.249482748E+01
   N -0.353281602E+03  0.665104337E+03 -0.177970746E+04
   C -0.131862658E+01  0.142097447E+01  0.251098577E+01
   C  0.126611548E+01  0.148242566E+01  0.251431620E+01
   C -0.204061450E+01  0.121124108E+00  0.250275493E+01
   C  0.182842391E+01 -0.376149250E+00  0.251931340E+01
   H -0.796049059E+01  0.130029473E+02  0.268502297E+01
   H  0.811172076E+01  0.129643859E+02  0.251281423E+01
   H -0.164240551E+02 -0.225856519E+01  0.261269330E+01
   H  0.162338039E+02 -0.471613708E+01  0.237843706E+01
  Xx  0.313058658E+03 -0.589124452E+03 -0.352135511E+03
    11
 # iter = 45500  time[fs]=45.50000
   N -0.965721963E+00 -0.249602163E+01  0.249496680E+01
   N -0.355253507E+03  0.668816213E+03 -0.178963637E+04
   C -0.131690174E+01  0.142323615E+01  0.251073133E+01
   C  0.126769915E+01  0.147718387E+01  0.251442468E+01
   C -0.204412960E+01  0.116960632E+00  0.250290304E+01
   C  0.182864632E+01 -0.372683523E+00  0.251916784E+01
   H -0.801073700E+01  0.130833242E+02  0.268629718E+01
   H  0.816419879E+01  0.130443108E+02  0.251282029E+01
   H -0.165257964E+02 -0.227865032E+01  0.261337024E+01
   H  0.163331874E+02 -0.475230436E+01  0.237757020E+01
  Xx  0.314799049E+03 -0.592400096E+03 -0.354111238E+03
    11
 # iter = 45750  time[fs]=45.75000
   N -0.969449382E+00 -0.250193590E+01  0.249511664E+01
   N -0.357225411E+03  0.672528090E+03 -0.179956528E+04
   C -0.131522798E+01  0.142528543E+01  0.251046965E+01
   C  0.126926502E+01  0.147183660E+01  0.251451589E+01
   C -0.204753468E+01  0.112944330E+00  0.250305231E+01
   C  0.182882096E+01 -0.369136166E+00  0.251902389E+01
   H -0.806104625E+01  0.131637899E+02  0.268757251E+01
   H  0.821674526E+01  0.131243199E+02  0.251282635E+01
   H -0.166276264E+02 -0.229877364E+01  0.261404718E+01
   H  0.164326509E+02 -0.478851382E+01  0.237670223E+01
  Xx  0.316539440E+03 -0.595675741E+03 -0.356086966E+03
    11
 # iter = 46000  time[fs]=46.00000
   N -0.973221576E+00 -0.250785166E+01  0.249527149E+01
   N -0.359197316E+03  0.676239966E+03 -0.180949419E+04
   C -0.131365155E+01  0.142714704E+01  0.251016889E+01
   C  0.127084012E+01  0.146639825E+01  0.251459851E+01
   C -0.205076697E+01  0.109088212E+00  0.250323583E+01
   C  0.182896131E+01 -0.365534065E+00  0.251889251E+01
   H -0.811141701E+01  0.132443433E+02  0.268884895E+01
   H  0.826935833E+01  0.132044102E+02  0.251283241E+01
   H -0.167295453E+02 -0.231893369E+01  0.261472412E+01
   H  0.165321942E+02 -0.482476463E+01  0.237583315E+01
  Xx  0.318279832E+03 -0.598951386E+03 -0.358062693E+03
    11
 # iter = 46250  time[fs]=46.25000
   N -0.977043814E+00 -0.251376265E+01  0.249543301E+01
   N -0.361169221E+03  0.679951843E+03 -0.181942310E+04
   C -0.131215119E+01  0.142880052E+01  0.250992083E+01
   C  0.127240251E+01  0.146086597E+01  0.251470840E+01
   C -0.205387778E+01  0.105397189E+00  0.250338175E+01
   C  0.182906833E+01 -0.361841063E+00  0.251871906E+01
   H -0.816184662E+01  0.133249813E+02  0.269012650E+01
   H  0.832203802E+01  0.132845805E+02  0.251283847E+01
   H -0.168315530E+02 -0.233912935E+01  0.261540105E+01
   H  0.166318154E+02 -0.486105543E+01  0.237496303E+01
  Xx  0.320020223E+03 -0.602227030E+03 -0.360038421E+03
    11
 # iter = 46500  time[fs]=46.50000
   N -0.980916387E+00 -0.251967824E+01  0.249560819E+01
   N -0.363141126E+03  0.683663719E+03 -0.182935201E+04
   C -0.131070340E+01  0.143028565E+01  0.250967530E+01
   C  0.127398493E+01  0.145520884E+01  0.251478450E+01
   C -0.205688791E+01  0.101869349E+00  0.250353034E+01
   C  0.182913006E+01 -0.358047085E+00  0.251855419E+01
   H -0.821233488E+01  0.134057036E+02  0.269140515E+01
   H  0.837478259E+01  0.133648306E+02  0.251284453E+01
   H -0.169336495E+02 -0.235936056E+01  0.261607799E+01
   H  0.167315079E+02 -0.489738619E+01  0.237409202E+01
  Xx  0.321760614E+03 -0.605502675E+03 -0.362014148E+03
    11
 # iter = 46750  time[fs]=46.75000
   N -0.984819299E+00 -0.252557977E+01  0.249578844E+01
   N -0.365113031E+03  0.687375596E+03 -0.183928092E+04
   C -0.130933801E+01  0.143163269E+01  0.250939238E+01
   C  0.127555684E+01  0.144938578E+01  0.251485400E+01
   C -0.205975719E+01  0.984200496E-01  0.250371016E+01
   C  0.182918135E+01 -0.354142143E+00  0.251839559E+01
   H -0.826288222E+01  0.134865104E+02  0.269268492E+01
   H  0.842759305E+01  0.134451607E+02  0.251285059E+01
   H -0.170358295E+02 -0.237962781E+01  0.261675493E+01
   H  0.168312715E+02 -0.493375692E+01  0.237322014E+01
  Xx  0.323501005E+03 -0.608778319E+03 -0.363989875E+03
    11
 # iter = 47000  time[fs]=47.00000
   N -0.988756638E+00 -0.253146140E+01  0.249597143E+01
   N -0.367084935E+03  0.691087472E+03 -0.184920983E+04
   C -0.130805162E+01  0.143283555E+01  0.250914120E+01
   C  0.127714356E+01  0.144346012E+01  0.251492959E+01
   C -0.206250664E+01  0.950514542E-01  0.250385464E+01
   C  0.182917381E+01 -0.350131921E+00  0.251823520E+01
   H -0.831348739E+01  0.135674015E+02  0.269396580E+01
   H  0.848046891E+01  0.135255706E+02  0.251285665E+01
   H -0.171380894E+02 -0.239993065E+01  0.261743187E+01
   H  0.169311062E+02 -0.497016762E+01  0.237234737E+01
  Xx  0.325241396E+03 -0.612053964E+03 -0.365965603E+03
    11
 # iter = 47250  time[fs]=47.25000
   N -0.992722415E+00 -0.253731786E+01  0.249615846E+01
   N -0.369056840E+03  0.694799349E+03 -0.185913874E+04
   C -0.130682350E+01  0.143385700E+01  0.250888891E+01
   C  0.127871349E+01  0.143742206E+01  0.251498978E+01
   C -0.206513780E+01  0.918246800E-01  0.250399962E+01
   C  0.182914913E+01 -0.346073769E+00  0.251809479E+01
   H -0.836415030E+01  0.136483762E+02  0.269524779E+01
   H  0.853340710E+01  0.136060589E+02  0.251286271E+01
   H -0.172404293E+02 -0.242026875E+01  0.261810881E+01
   H  0.170310120E+02 -0.500661826E+01  0.237147382E+01
  Xx  0.326981787E+03 -0.615329608E+03 -0.367941330E+03
    11
 # iter = 47500  time[fs]=47.50000
   N -0.996707236E+00 -0.254314632E+01  0.249635290E+01
   N -0.371028745E+03  0.698511225E+03 -0.186906765E+04
   C -0.130567572E+01  0.143465360E+01  0.250861364E+01
   C  0.128024337E+01  0.143135129E+01  0.251507360E+01
   C -0.206761961E+01  0.888002117E-01  0.250416597E+01
   C  0.182913161E+01 -0.341973775E+00  0.251793618E+01
   H -0.841487093E+01  0.137294312E+02  0.269653089E+01
   H  0.858640746E+01  0.136866226E+02  0.251286877E+01
   H -0.173428490E+02 -0.244064057E+01  0.261878574E+01
   H  0.171309887E+02 -0.504310811E+01  0.237059918E+01
  Xx  0.328722178E+03 -0.618605253E+03 -0.369917058E+03
    11
 # iter = 47750  time[fs]=47.75000
   N -0.100071534E+01 -0.254894138E+01  0.249655550E+01
   N -0.373000650E+03  0.702223102E+03 -0.187899656E+04
   C -0.130464089E+01  0.143520844E+01  0.250835224E+01
   C  0.128177480E+01  0.142523663E+01  0.251516839E+01
   C -0.206996058E+01  0.859722585E-01  0.250430186E+01
   C  0.182905752E+01 -0.337853440E+00  0.251774970E+01
   H -0.846564797E+01  0.138105661E+02  0.269781510E+01
   H  0.863946998E+01  0.137672619E+02  0.251287483E+01
   H -0.174453488E+02 -0.246104570E+01  0.261946268E+01
   H  0.172310366E+02 -0.507963660E+01  0.236972361E+01
  Xx  0.330462570E+03 -0.621880897E+03 -0.371892785E+03
    11
 # iter = 48000  time[fs]=48.00000
   N -0.100473194E+01 -0.255467961E+01  0.249676276E+01
   N -0.374972554E+03  0.705934978E+03 -0.188892547E+04
   C -0.130367080E+01  0.143558160E+01  0.250808195E+01
   C  0.128330720E+01  0.141906407E+01  0.251524994E+01
   C -0.207213328E+01  0.832907462E-01  0.250444848E+01
   C  0.182897597E+01 -0.333704848E+00  0.251758552E+01
   H -0.851647850E+01  0.138917809E+02  0.269910042E+01
   H  0.869259469E+01  0.138479766E+02  0.251288089E+01
   H -0.175479284E+02 -0.248148414E+01  0.262013962E+01
   H  0.173311555E+02 -0.511620284E+01  0.236884747E+01
  Xx  0.332202961E+03 -0.625156542E+03 -0.373868513E+03
    11
 # iter = 48250  time[fs]=48.25000
   N -0.100875145E+01 -0.256036477E+01  0.249697829E+01
   N -0.376944459E+03  0.709646855E+03 -0.189885438E+04
   C -0.130277776E+01  0.143577662E+01  0.250778317E+01
   C  0.128485741E+01  0.141282069E+01  0.251536690E+01
   C -0.207420014E+01  0.807187649E-01  0.250460290E+01
   C  0.182884083E+01 -0.329493406E+00  0.251740400E+01
   H -0.856736391E+01  0.139730747E+02  0.270038684E+01
   H  0.874578066E+01  0.139287669E+02  0.251288695E+01
   H -0.176505880E+02 -0.250195571E+01  0.262081656E+01
   H  0.174313454E+02 -0.515280682E+01  0.236797061E+01
  Xx  0.333943352E+03 -0.628432186E+03 -0.375844240E+03
    11
 # iter = 48500  time[fs]=48.50000
   N -0.101277101E+01 -0.256598679E+01  0.249719522E+01
   N -0.378916364E+03  0.713358731E+03 -0.190878329E+04
   C -0.130198940E+01  0.143581218E+01  0.250749022E+01
   C  0.128640075E+01  0.140647314E+01  0.251547404E+01
   C -0.207613056E+01  0.782531637E-01  0.250474470E+01
   C  0.182868594E+01 -0.325215647E+00  0.251722137E+01
   H -0.861830272E+01  0.140544443E+02  0.270167438E+01
   H  0.879902529E+01  0.140096317E+02  0.251289301E+01
   H -0.177533276E+02 -0.252245997E+01  0.262149350E+01
   H  0.175316064E+02 -0.518944855E+01  0.236709271E+01
  Xx  0.335683743E+03 -0.631707831E+03 -0.377819968E+03
    11
 # iter = 48750  time[fs]=48.75000
   N -0.101678126E+01 -0.257154735E+01  0.249741589E+01
   N -0.380888269E+03  0.717070608E+03 -0.191871220E+04
   C -0.130126965E+01  0.143567435E+01  0.250716459E+01
   C  0.128791862E+01  0.140004222E+01  0.251557218E+01
   C -0.207792971E+01  0.759032927E-01  0.250490588E+01
   C  0.182852081E+01 -0.320844790E+00  0.251706505E+01
   H -0.866929482E+01  0.141358893E+02  0.270296303E+01
   H  0.885232773E+01  0.140905678E+02  0.251289907E+01
   H -0.178561436E+02 -0.254299653E+01  0.262217044E+01
   H  0.176319385E+02 -0.522612803E+01  0.236621416E+01
  Xx  0.337424134E+03 -0.634983475E+03 -0.379795695E+03
    11
 # iter = 49000  time[fs]=49.00000
   N -0.102077348E+01 -0.257706226E+01  0.249764250E+01
   N -0.382860174E+03  0.720782484E+03 -0.192864111E+04
   C -0.130056100E+01  0.143532787E+01  0.250684960E+01
   C  0.128943077E+01  0.139352770E+01  0.251570798E+01
   C -0.207965503E+01  0.737147308E-01  0.250505894E+01
   C  0.182830107E+01 -0.316392802E+00  0.251686025E+01
   H -0.872034020E+01  0.142174099E+02  0.270425279E+01
   H  0.890568791E+01  0.141715750E+02  0.251290513E+01
   H -0.179590309E+02 -0.256356528E+01  0.262284737E+01
   H  0.177323373E+02 -0.526284437E+01  0.236533469E+01
  Xx  0.339164525E+03 -0.638259120E+03 -0.381771422E+03
    11
 # iter = 49250  time[fs]=49.25000
   N -0.102474459E+01 -0.258253048E+01  0.249786802E+01
   N -0.384832078E+03  0.724494361E+03 -0.193857002E+04
   C -0.129989890E+01  0.143481081E+01  0.250653725E+01
   C  0.129091550E+01  0.138690054E+01  0.251585335E+01
   C -0.208124776E+01  0.716642869E-01  0.250520167E+01
   C  0.182805834E+01 -0.311857229E+00  0.251666634E+01
   H -0.877143856E+01  0.142990059E+02  0.270554366E+01
   H  0.895910582E+01  0.142526527E+02  0.251291119E+01
   H -0.180619891E+02 -0.258416563E+01  0.262352431E+01
   H  0.178327984E+02 -0.529959626E+01  0.236445482E+01
  Xx  0.340904916E+03 -0.641534764E+03 -0.383747150E+03
    11
 # iter = 49500  time[fs]=49.50000
   N -0.102869961E+01 -0.258795898E+01  0.249809568E+01
   N -0.386803983E+03  0.728206237E+03 -0.194849894E+04
   C -0.129931078E+01  0.143414702E+01  0.250617668E+01
   C  0.129237654E+01  0.138018626E+01  0.251595873E+01
   C -0.208269720E+01  0.697598182E-01  0.250538336E+01
   C  0.182780504E+01 -0.307224099E+00  0.251649014E+01
   H -0.882258893E+01  0.143806750E+02  0.270683564E+01
   H  0.901258145E+01  0.143337984E+02  0.251291725E+01
   H -0.181650185E+02 -0.260479706E+01  0.262420125E+01
   H  0.179333216E+02 -0.533638367E+01  0.236357426E+01
  Xx  0.342645308E+03 -0.644810409E+03 -0.385722877E+03
    11
 # iter = 49750  time[fs]=49.75000
   N -0.103262823E+01 -0.259336394E+01  0.249832070E+01
   N -0.388775888E+03  0.731918114E+03 -0.195842785E+04
   C -0.129877395E+01  0.143329184E+01  0.250584016E+01
   C  0.129382562E+01  0.137333260E+01  0.251606926E+01
   C -0.208405890E+01  0.680185370E-01  0.250557179E+01
   C  0.182751285E+01 -0.302496271E+00  0.251629437E+01
   H -0.887379185E+01  0.144624189E+02  0.270812874E+01
   H  0.906611449E+01  0.144150127E+02  0.251292331E+01
   H -0.182681188E+02 -0.262545957E+01  0.262487819E+01
   H  0.180339070E+02 -0.537320653E+01  0.236269310E+01
  Xx  0.344385699E+03 -0.648086053E+03 -0.387698605E+03
    11
 # iter = 50000  time[fs]=50.00000
   N -0.103652601E+01 -0.259872661E+01  0.249854694E+01
   N -0.390747793E+03  0.735629990E+03 -0.196835676E+04
   C -0.129829498E+01  0.143227696E+01  0.250551159E+01
   C  0.129526530E+01  0.136636259E+01  0.251618643E+01
   C -0.208527040E+01  0.663965867E-01  0.250573809E+01
   C  0.182721802E+01 -0.297654692E+00  0.251609839E+01
   H -0.892504607E+01  0.145442378E+02  0.270942294E+01
   H  0.911970455E+01  0.144962936E+02  0.251292937E+01
   H -0.183712903E+02 -0.264615317E+01  0.262555513E+01
   H  0.181345546E+02 -0.541006461E+01  0.236181139E+01
  Xx  0.346126090E+03 -0.651361698E+03 -0.389674332E+03
    11
 # iter = 50250  time[fs]=50.25000
   N -0.104040907E+01 -0.260405420E+01  0.249877913E+01
   N -0.392719697E+03  0.739341867E+03 -0.197828567E+04
   C -0.129790392E+01  0.143106248E+01  0.250514789E+01
   C  0.129668200E+01  0.135930425E+01  0.251629428E+01
   C -0.208635039E+01  0.648947200E-01  0.250593994E+01
   C  0.182686627E+01 -0.292733408E+00  0.251590857E+01
   H -0.897635197E+01  0.146261285E+02  0.271071825E+01
   H  0.917335047E+01  0.145776411E+02  0.251293543E+01
   H -0.184745328E+02 -0.266687738E+01  0.262623206E+01
   H  0.182352643E+02 -0.544695807E+01  0.236092871E+01
  Xx  0.347866481E+03 -0.654637342E+03 -0.391650060E+03
    11
 # iter = 50500  time[fs]=50.50000
   N -0.104426734E+01 -0.260935960E+01  0.249900637E+01
   N -0.394691602E+03  0.743053743E+03 -0.198821458E+04
   C -0.129755059E+01  0.142963061E+01  0.250478273E+01
   C  0.129807102E+01  0.135216135E+01  0.251642479E+01
   C -0.208732595E+01  0.635864513E-01  0.250613578E+01
   C  0.182651175E+01 -0.287732410E+00  0.251567719E+01
   H -0.902770676E+01  0.147080902E+02  0.271201467E+01
   H  0.922704970E+01  0.146590552E+02  0.251294149E+01
   H -0.185778463E+02 -0.268763156E+01  0.262690900E+01
   H  0.183360362E+02 -0.548388531E+01  0.236004500E+01
  Xx  0.349606872E+03 -0.657912987E+03 -0.393625787E+03
    11
 # iter = 50750  time[fs]=50.75000
   N -0.104809219E+01 -0.261466982E+01  0.249922662E+01
   N -0.396663507E+03  0.746765620E+03 -0.199814349E+04
   C -0.129727764E+01  0.142798761E+01  0.250441533E+01
   C  0.129946735E+01  0.134493608E+01  0.251654617E+01
   C -0.208816319E+01  0.624484282E-01  0.250634747E+01
   C  0.182610458E+01 -0.282662300E+00  0.251546647E+01
   H -0.907911040E+01  0.147901230E+02  0.271331220E+01
   H  0.928080222E+01  0.147405360E+02  0.251294755E+01
   H -0.186812309E+02 -0.270841570E+01  0.262758594E+01
   H  0.184368703E+02 -0.552084585E+01  0.235916070E+01
  Xx  0.351347263E+03 -0.661188631E+03 -0.395601515E+03
    11
 # iter = 51000  time[fs]=51.00000
   N -0.105186956E+01 -0.261999436E+01  0.249944383E+01
   N -0.398635412E+03  0.750477496E+03 -0.200807240E+04
   C -0.129708472E+01  0.142617001E+01  0.250402217E+01
   C  0.130086761E+01  0.133761033E+01  0.251661533E+01
   C -0.208884653E+01  0.614866602E-01  0.250659546E+01
   C  0.182563653E+01 -0.277514024E+00  0.251529642E+01
   H -0.913056290E+01  0.148722262E+02  0.271461084E+01
   H  0.933460803E+01  0.148220806E+02  0.251295361E+01
   H -0.187846866E+02 -0.272922903E+01  0.262826288E+01
   H  0.185377666E+02 -0.555783970E+01  0.235827571E+01
  Xx  0.353087654E+03 -0.664464276E+03 -0.397577242E+03
    11
 # iter = 51250  time[fs]=51.25000
   N -0.105560932E+01 -0.262532611E+01  0.249965666E+01
   N -0.400607317E+03  0.754189373E+03 -0.201800131E+04
   C -0.129692604E+01  0.142414830E+01  0.250364012E+01
   C  0.130220655E+01  0.133017197E+01  0.251671533E+01
   C -0.208942550E+01  0.606882274E-01  0.250681350E+01
   C  0.182516752E+01 -0.272248795E+00  0.251509336E+01
   H -0.918206424E+01  0.149543974E+02  0.271591059E+01
   H  0.938846713E+01  0.149036874E+02  0.251295967E+01
   H -0.188882133E+02 -0.275007082E+01  0.262893982E+01
   H  0.186387250E+02 -0.559486676E+01  0.235738980E+01
  Xx  0.354828046E+03 -0.667739920E+03 -0.399552969E+03
    11
 # iter = 51500  time[fs]=51.50000
   N -0.105932115E+01 -0.263067658E+01  0.249986615E+01
   N -0.402579221E+03  0.757901249E+03 -0.202793022E+04
   C -0.129681426E+01  0.142192965E+01  0.250324948E+01
   C  0.130354525E+01  0.132261685E+01  0.251686751E+01
   C -0.208990854E+01  0.600650209E-01  0.250704783E+01
   C  0.182467560E+01 -0.266898140E+00  0.251483143E+01
   H -0.923361432E+01  0.150366353E+02  0.271721146E+01
   H  0.944237948E+01  0.149853564E+02  0.251296573E+01
   H -0.189918110E+02 -0.277094112E+01  0.262961676E+01
   H  0.187397456E+02 -0.563192546E+01  0.235650292E+01
  Xx  0.356568437E+03 -0.671015565E+03 -0.401528697E+03
    11
 # iter = 51750  time[fs]=51.75000
   N -0.106298642E+01 -0.263604995E+01  0.250007405E+01
   N -0.404551126E+03  0.761613126E+03 -0.203785913E+04
   C -0.129677918E+01  0.141952701E+01  0.250281310E+01
   C  0.130492848E+01  0.131499717E+01  0.251696514E+01
   C -0.209024512E+01  0.595756410E-01  0.250732237E+01
   C  0.182410822E+01 -0.261462599E+00  0.251462872E+01
   H -0.928521156E+01  0.151189398E+02  0.271851343E+01
   H  0.949634345E+01  0.150670876E+02  0.251297179E+01
   H -0.190954787E+02 -0.279183959E+01  0.263029369E+01
   H  0.188408284E+02 -0.566901534E+01  0.235561539E+01
  Xx  0.358308828E+03 -0.674291209E+03 -0.403504424E+03
    11
 # iter = 52000  time[fs]=52.00000
   N -0.106661863E+01 -0.264144856E+01  0.250027381E+01
   N -0.406523031E+03  0.765325002E+03 -0.204778804E+04
   C -0.129682025E+01  0.141694829E+01  0.250239156E+01
   C  0.130630030E+01  0.130729075E+01  0.251704628E+01
   C -0.209045935E+01  0.592109033E-01  0.250758998E+01
   C  0.182349038E+01 -0.255974139E+00  0.251445343E+01
   H -0.933685603E+01  0.152013108E+02  0.271981651E+01
   H  0.955035863E+01  0.151488809E+02  0.251297785E+01
   H -0.191992096E+02 -0.281276584E+01  0.263097063E+01
   H  0.189419723E+02 -0.570613671E+01  0.235472751E+01
  Xx  0.360049219E+03 -0.677566854E+03 -0.405480152E+03
    11
 # iter = 52250  time[fs]=52.25000
   N -0.107021544E+01 -0.264686997E+01  0.250047651E+01
   N -0.408494936E+03  0.769036879E+03 -0.205771695E+04
   C -0.129691484E+01  0.141420734E+01  0.250196330E+01
   C  0.130760815E+01  0.129946973E+01  0.251716264E+01
   C -0.209056838E+01  0.589530825E-01  0.250784208E+01
   C  0.182291152E+01 -0.250406858E+00  0.251422232E+01
   H -0.938854497E+01  0.152837486E+02  0.272112070E+01
   H  0.960442267E+01  0.152307363E+02  0.251298391E+01
   H -0.193030027E+02 -0.283371982E+01  0.263164757E+01
   H  0.190431707E+02 -0.574328917E+01  0.235383899E+01
  Xx  0.361789610E+03 -0.680842498E+03 -0.407455879E+03
    11
 # iter = 52500  time[fs]=52.50000
   N -0.107377068E+01 -0.265231632E+01  0.250067978E+01
   N -0.410466840E+03  0.772748755E+03 -0.206764586E+04
   C -0.129709170E+01  0.141133071E+01  0.250151114E+01
   C  0.130892391E+01  0.129156488E+01  0.251729488E+01
   C -0.209056739E+01  0.587949225E-01  0.250812369E+01
   C  0.182229036E+01 -0.244749691E+00  0.251398335E+01
   H -0.944027833E+01  0.153662529E+02  0.272242601E+01
   H  0.965853556E+01  0.153126523E+02  0.251298997E+01
   H -0.194068580E+02 -0.285470102E+01  0.263232451E+01
   H  0.191444223E+02 -0.578047272E+01  0.235295026E+01
  Xx  0.363530001E+03 -0.684118143E+03 -0.409431607E+03
    11
 # iter = 52750  time[fs]=52.75000
   N -0.107729410E+01 -0.265781125E+01  0.250088165E+01
   N -0.412438745E+03  0.776460632E+03 -0.207757477E+04
   C -0.129729308E+01  0.140831270E+01  0.250106595E+01
   C  0.131026561E+01  0.128355454E+01  0.251737177E+01
   C -0.209045290E+01  0.587240216E-01  0.250839423E+01
   C  0.182161242E+01 -0.239021155E+00  0.251380339E+01
   H -0.949205609E+01  0.154488231E+02  0.272373242E+01
   H  0.971269730E+01  0.153946267E+02  0.251299603E+01
   H -0.195107754E+02 -0.287570946E+01  0.263300145E+01
   H  0.192457272E+02 -0.581768663E+01  0.235206138E+01
  Xx  0.365270392E+03 -0.687393787E+03 -0.411407334E+03
    11
 # iter = 53000  time[fs]=53.00000
   N -0.108077809E+01 -0.266334729E+01  0.250107581E+01
   N -0.414410650E+03  0.780172508E+03 -0.208750368E+04
   C -0.129750194E+01  0.140515490E+01  0.250060305E+01
   C  0.131159791E+01  0.127543922E+01  0.251746461E+01
   C -0.209027060E+01  0.587693752E-01  0.250867742E+01
   C  0.182090114E+01 -0.233200805E+00  0.251360678E+01
   H -0.954387826E+01  0.155314560E+02  0.272503994E+01
   H  0.976690789E+01  0.154766588E+02  0.251300210E+01
   H -0.196147550E+02 -0.289674454E+01  0.263367839E+01
   H  0.193470854E+02 -0.585492945E+01  0.235117249E+01
  Xx  0.367010784E+03 -0.690669432E+03 -0.413383061E+03
    11
 # iter = 53250  time[fs]=53.25000
   N -0.108422054E+01 -0.266891933E+01  0.250126515E+01
   N -0.416382555E+03  0.783884385E+03 -0.209743259E+04
   C -0.129776980E+01  0.140185963E+01  0.250010994E+01
   C  0.131291067E+01  0.126720227E+01  0.251758726E+01
   C -0.208997768E+01  0.589066055E-01  0.250899489E+01
   C  0.182016387E+01 -0.227298856E+00  0.251337249E+01
   H -0.959574484E+01  0.156141510E+02  0.272634858E+01
   H  0.982116732E+01  0.155587487E+02  0.251300816E+01
   H -0.197187968E+02 -0.291780628E+01  0.263435532E+01
   H  0.194484970E+02 -0.589220113E+01  0.235028361E+01
  Xx  0.368751175E+03 -0.693945076E+03 -0.415358789E+03
    11
 # iter = 53500  time[fs]=53.50000
   N -0.108761893E+01 -0.267454772E+01  0.250146071E+01
   N -0.418354460E+03  0.787596261E+03 -0.210736150E+04
   C -0.129809835E+01  0.139845338E+01  0.249962594E+01
   C  0.131420974E+01  0.125884810E+01  0.251769194E+01
   C -0.208956452E+01  0.591508687E-01  0.250928234E+01
   C  0.181940487E+01 -0.221294313E+00  0.251316872E+01
   H -0.964765583E+01  0.156969083E+02  0.272765832E+01
   H  0.987547561E+01  0.156408963E+02  0.251301422E+01
   H -0.198229007E+02 -0.293889466E+01  0.263503226E+01
   H  0.195499618E+02 -0.592950167E+01  0.234939446E+01
  Xx  0.370491566E+03 -0.697220721E+03 -0.417334516E+03
    11
 # iter = 53750  time[fs]=53.75000
   N -0.109096373E+01 -0.268023269E+01  0.250165234E+01
   N -0.420326364E+03  0.791308138E+03 -0.211729041E+04
   C -0.129843137E+01  0.139490055E+01  0.249912815E+01
   C  0.131548718E+01  0.125036746E+01  0.251778512E+01
   C -0.208907833E+01  0.594700825E-01  0.250958901E+01
   C  0.181861170E+01 -0.215185828E+00  0.251297825E+01
   H -0.969961123E+01  0.157797276E+02  0.272896918E+01
   H  0.992983275E+01  0.157231016E+02  0.251302028E+01
   H -0.199270669E+02 -0.296000964E+01  0.263570920E+01
   H  0.196514798E+02 -0.596683109E+01  0.234850497E+01
  Xx  0.372231957E+03 -0.700496365E+03 -0.419310244E+03
    11
 # iter = 54000  time[fs]=54.00000
   N -0.109427714E+01 -0.268598085E+01  0.250183229E+01
   N -0.422298269E+03  0.795020014E+03 -0.212721932E+04
   C -0.129880158E+01  0.139122841E+01  0.249859943E+01
   C  0.131676170E+01  0.124177687E+01  0.251790243E+01
   C -0.208849933E+01  0.598853597E-01  0.250991467E+01
   C  0.181777592E+01 -0.208976190E+00  0.251276201E+01
   H -0.975161103E+01  0.158626092E+02  0.273028114E+01
   H  0.998423683E+01  0.158053647E+02  0.251302634E+01
   H -0.200312951E+02 -0.298115044E+01  0.263638614E+01
   H  0.197530512E+02 -0.600418937E+01  0.234761465E+01
  Xx  0.373972348E+03 -0.703772010E+03 -0.421285971E+03
    11
 # iter = 54250  time[fs]=54.25000
   N -0.109754622E+01 -0.269179232E+01  0.250200410E+01
   N -0.424270174E+03  0.798731891E+03 -0.213714823E+04
   C -0.129923890E+01  0.138741669E+01  0.249809843E+01
   C  0.131802079E+01  0.123306128E+01  0.251802604E+01
   C -0.208781270E+01  0.603903661E-01  0.251022012E+01
   C  0.181689848E+01 -0.202655493E+00  0.251254330E+01
   H -0.980365403E+01  0.159455529E+02  0.273159421E+01
   H  0.100386853E+02  0.158876846E+02  0.251303240E+01
   H -0.201355856E+02 -0.300231677E+01  0.263706308E+01
   H  0.198546759E+02 -0.604157651E+01  0.234672364E+01
  Xx  0.375712739E+03 -0.707047654E+03 -0.423261699E+03
    11
 # iter = 54500  time[fs]=54.50000
   N -0.110076515E+01 -0.269767014E+01  0.250217221E+01
   N -0.426242079E+03  0.802443767E+03 -0.214707714E+04
   C -0.129966500E+01  0.138347707E+01  0.249757763E+01
   C  0.131926553E+01  0.122418581E+01  0.251811906E+01
   C -0.208705466E+01  0.610362950E-01  0.251054690E+01
   C  0.181599725E+01 -0.196197855E+00  0.251234479E+01
   H -0.985573715E+01  0.160285586E+02  0.273290840E+01
   H  0.100931782E+02  0.159700581E+02  0.251303846E+01
   H -0.202399383E+02 -0.302350839E+01  0.263774001E+01
   H  0.199563539E+02 -0.607899252E+01  0.234583212E+01
  Xx  0.377453130E+03 -0.710323299E+03 -0.425237426E+03
    11
 # iter = 54750  time[fs]=54.75000
   N -0.110395146E+01 -0.270362495E+01  0.250233930E+01
   N -0.428213983E+03  0.806155644E+03 -0.215700605E+04
   C -0.130008992E+01  0.137940085E+01  0.249701749E+01
   C  0.132051427E+01  0.121516067E+01  0.251822661E+01
   C -0.208622679E+01  0.618080174E-01  0.251090760E+01
   C  0.181502927E+01 -0.189609092E+00  0.251214077E+01
   H -0.990786024E+01  0.161116261E+02  0.273422369E+01
   H  0.101477155E+02  0.160524849E+02  0.251304452E+01
   H -0.203443531E+02 -0.304472450E+01  0.263841695E+01
   H  0.200580851E+02 -0.611643646E+01  0.234494048E+01
  Xx  0.379193521E+03 -0.713598943E+03 -0.427213154E+03
    11
 # iter = 55000  time[fs]=55.00000
   N -0.110709241E+01 -0.270964621E+01  0.250249982E+01
   N -0.430185888E+03  0.809867520E+03 -0.216693496E+04
   C -0.130057379E+01  0.137521597E+01  0.249648910E+01
   C  0.132173658E+01  0.120601549E+01  0.251834952E+01
   C -0.208526979E+01  0.627009733E-01  0.251124624E+01
   C  0.181401556E+01 -0.182908764E+00  0.251190560E+01
   H -0.996002329E+01  0.161947558E+02  0.273554010E+01
   H  0.102022973E+02  0.161349650E+02  0.251305058E+01
   H -0.204488301E+02 -0.306596503E+01  0.263909389E+01
   H  0.201598697E+02 -0.615390706E+01  0.234404858E+01
  Xx  0.380933913E+03 -0.716874588E+03 -0.429188881E+03
    11
 # iter = 55250  time[fs]=55.25000
   N -0.111019257E+01 -0.271572591E+01  0.250265688E+01
   N -0.432157793E+03  0.813579397E+03 -0.217686387E+04
   C -0.130105043E+01  0.137087738E+01  0.249597009E+01
   C  0.132294489E+01  0.119675032E+01  0.251843795E+01
   C -0.208427171E+01  0.637285411E-01  0.251157203E+01
   C  0.181296703E+01 -0.176100937E+00  0.251170180E+01
   H -0.100122263E+02  0.162779458E+02  0.273685762E+01
   H  0.102569234E+02  0.162174984E+02  0.251305664E+01
   H -0.205533692E+02 -0.308722999E+01  0.263977083E+01
   H  0.202617075E+02 -0.619140430E+01  0.234315663E+01
  Xx  0.382674304E+03 -0.720150233E+03 -0.431164608E+03
    11
 # iter = 55500  time[fs]=55.50000
   N -0.111328456E+01 -0.272185930E+01  0.250281101E+01
   N -0.434129698E+03  0.817291273E+03 -0.218679278E+04
   C -0.130150264E+01  0.136637897E+01  0.249543124E+01
   C  0.132413345E+01  0.118735682E+01  0.251852638E+01
   C -0.208320215E+01  0.648864579E-01  0.251193312E+01
   C  0.181188620E+01 -0.169181245E+00  0.251149747E+01
   H -0.100644693E+02  0.163611939E+02  0.273817624E+01
   H  0.103115939E+02  0.163000851E+02  0.251306270E+01
   H -0.206579677E+02 -0.310851937E+01  0.264044777E+01
   H  0.203635986E+02 -0.622892819E+01  0.234226469E+01
  Xx  0.384414695E+03 -0.723425877E+03 -0.433140336E+03
    11
 # iter = 55750  time[fs]=55.75000
   N -0.111635709E+01 -0.272803133E+01  0.250295801E+01
   N -0.436101603E+03  0.821003150E+03 -0.219672169E+04
   C -0.130202633E+01  0.136175061E+01  0.249489965E+01
   C  0.132528234E+01  0.117784807E+01  0.251863973E+01
   C -0.208201405E+01  0.661447545E-01  0.251228173E+01
   C  0.181078278E+01 -0.162157455E+00  0.251125628E+01
   H -0.101167523E+02  0.164444972E+02  0.273949598E+01
   H  0.103663089E+02  0.163827250E+02  0.251306876E+01
   H -0.207626197E+02 -0.312983252E+01  0.264112471E+01
   H  0.204655430E+02 -0.626647873E+01  0.234137274E+01
  Xx  0.386155086E+03 -0.726701522E+03 -0.435116063E+03
    11
 # iter = 56000  time[fs]=56.00000
   N -0.111940623E+01 -0.273424397E+01  0.250310692E+01
   N -0.438073507E+03  0.824715026E+03 -0.220665060E+04
   C -0.130258278E+01  0.135695721E+01  0.249436582E+01
   C  0.132640628E+01  0.116825579E+01  0.251871603E+01
   C -0.208075121E+01  0.675251220E-01  0.251262186E+01
   C  0.180965673E+01 -0.155069312E+00  0.251106305E+01
   H -0.101690752E+02  0.165278537E+02  0.274081682E+01
   H  0.104210682E+02  0.164654183E+02  0.251307482E+01
   H -0.208673249E+02 -0.315116898E+01  0.264180164E+01
   H  0.205675372E+02 -0.630405591E+01  0.234048080E+01
  Xx  0.387895477E+03 -0.729977166E+03 -0.437091791E+03
    11
 # iter = 56250  time[fs]=56.25000
   N -0.112245481E+01 -0.274049189E+01  0.250325479E+01
   N -0.440045412E+03  0.828426902E+03 -0.221657951E+04
   C -0.130316260E+01  0.135204704E+01  0.249381812E+01
   C  0.132751274E+01  0.115857640E+01  0.251881661E+01
   C -0.207938155E+01  0.690317263E-01  0.251298625E+01
   C  0.180852943E+01 -0.147907377E+00  0.251082809E+01
   H -0.102214381E+02  0.166112635E+02  0.274213878E+01
   H  0.104758718E+02  0.165481648E+02  0.251308088E+01
   H -0.209720834E+02 -0.317252875E+01  0.264247858E+01
   H  0.206695759E+02 -0.634165973E+01  0.233958885E+01
  Xx  0.389635868E+03 -0.733252811E+03 -0.439067518E+03
    11
 # iter = 56500  time[fs]=56.50000
   N -0.112550694E+01 -0.274676176E+01  0.250339488E+01
   N -0.442017317E+03  0.832138779E+03 -0.222650843E+04
   C -0.130380475E+01  0.134698666E+01  0.249328379E+01
   C  0.132856725E+01  0.114883199E+01  0.251892865E+01
   C -0.207792821E+01  0.706338993E-01  0.251334286E+01
   C  0.180739958E+01 -0.140695059E+00  0.251058319E+01
   H -0.102738409E+02  0.166947265E+02  0.274346185E+01
   H  0.105307181E+02  0.166309647E+02  0.251308694E+01
   H -0.210768953E+02 -0.319391183E+01  0.264315552E+01
   H  0.207716589E+02 -0.637929020E+01  0.233869690E+01
  Xx  0.391376259E+03 -0.736528455E+03 -0.441043246E+03
    11
 # iter = 56750  time[fs]=56.75000
   N -0.112856668E+01 -0.275304320E+01  0.250353853E+01
   N -0.443989222E+03  0.835850655E+03 -0.223643734E+04
   C -0.130445300E+01  0.134178786E+01  0.249276278E+01
   C  0.132957003E+01  0.113906201E+01  0.251900993E+01
   C -0.207641035E+01  0.723525086E-01  0.251366657E+01
   C  0.180630995E+01 -0.133461964E+00  0.251038013E+01
   H -0.103262822E+02  0.167782429E+02  0.274478602E+01
   H  0.105856047E+02  0.167138178E+02  0.251309300E+01
   H -0.211817604E+02 -0.321531779E+01  0.264383246E+01
   H  0.208737864E+02 -0.641694731E+01  0.233780496E+01
  Xx  0.393116651E+03 -0.739804100E+03 -0.443018973E+03
    11
 # iter = 57000  time[fs]=57.00000
   N -0.113164337E+01 -0.275932526E+01  0.250368007E+01
   N -0.445961126E+03  0.839562532E+03 -0.224636625E+04
   C -0.130513550E+01  0.133645089E+01  0.249222373E+01
   C  0.133053212E+01  0.112929128E+01  0.251913836E+01
   C -0.207481850E+01  0.741561553E-01  0.251400234E+01
   C  0.180522180E+01 -0.126256544E+00  0.251012012E+01
   H -0.103787611E+02  0.168618126E+02  0.274611131E+01
   H  0.106405313E+02  0.167967242E+02  0.251309906E+01
   H -0.212866788E+02 -0.323674630E+01  0.264450940E+01
   H  0.209759582E+02 -0.645463009E+01  0.233691301E+01
  Xx  0.394857042E+03 -0.743079744E+03 -0.444994701E+03
    11
 # iter = 57250  time[fs]=57.25000
   N -0.113473560E+01 -0.276561732E+01  0.250381394E+01
   N -0.447933031E+03  0.843274408E+03 -0.225629516E+04
   C -0.130583836E+01  0.133097810E+01  0.249167348E+01
   C  0.133145848E+01  0.111957412E+01  0.251923619E+01
   C -0.207315514E+01  0.760601182E-01  0.251436274E+01
   C  0.180414940E+01 -0.119093826E+00  0.250989962E+01
   H -0.104312755E+02  0.169454355E+02  0.274743771E+01
   H  0.106954979E+02  0.168796839E+02  0.251310512E+01
   H -0.213916505E+02 -0.325819701E+01  0.264518633E+01
   H  0.210781745E+02 -0.649233730E+01  0.233602107E+01
  Xx  0.396597433E+03 -0.746355389E+03 -0.446970428E+03
    11
 # iter = 57500  time[fs]=57.50000
   N -0.113785858E+01 -0.277191623E+01  0.250394979E+01
   N -0.449904936E+03  0.846986285E+03 -0.226622407E+04
   C -0.130655281E+01  0.132539473E+01  0.249114135E+01
   C  0.133228844E+01  0.110993211E+01  0.251934814E+01
   C -0.207144575E+01  0.780353345E-01  0.251468395E+01
   C  0.180313370E+01 -0.112000703E+00  0.250964662E+01
   H -0.104838255E+02  0.170291118E+02  0.274876521E+01
   H  0.107505045E+02  0.169626931E+02  0.251311118E+01
   H -0.214966755E+02 -0.327966993E+01  0.264586327E+01
   H  0.211804352E+02 -0.653006894E+01  0.233512878E+01
  Xx  0.398337824E+03 -0.749631033E+03 -0.448946155E+03
    11
 # iter = 57750  time[fs]=57.75000
   N -0.114101583E+01 -0.277820652E+01  0.250407938E+01
   N -0.451876841E+03  0.850698161E+03 -0.227615298E+04
   C -0.130730828E+01  0.131972462E+01  0.249060677E+01
   C  0.133308532E+01  0.110039903E+01  0.251947931E+01
   C -0.206965079E+01  0.800667355E-01  0.251499603E+01
   C  0.180212636E+01 -0.105039667E+00  0.250940311E+01
   H -0.105364110E+02  0.171128413E+02  0.275009383E+01
   H  0.108055510E+02  0.170457467E+02  0.251311724E+01
   H -0.216017538E+02 -0.330116506E+01  0.264654021E+01
   H  0.212827403E+02 -0.656782499E+01  0.233423636E+01
  Xx  0.400078215E+03 -0.752906678E+03 -0.450921883E+03
    11
 # iter = 58000  time[fs]=58.00000
   N -0.114419353E+01 -0.278448119E+01  0.250420784E+01
   N -0.453848746E+03  0.854410038E+03 -0.228608189E+04
   C -0.130804302E+01  0.131393292E+01  0.249007893E+01
   C  0.133377957E+01  0.109101805E+01  0.251956218E+01
   C -0.206785994E+01  0.822018674E-01  0.251532301E+01
   C  0.180119474E+01 -0.982370773E-01  0.250918058E+01
   H -0.105890320E+02  0.171966242E+02  0.275142356E+01
   H  0.108606375E+02  0.171288448E+02  0.251312330E+01
   H -0.217068854E+02 -0.332268218E+01  0.264721715E+01
   H  0.213850898E+02 -0.660560548E+01  0.233334395E+01
  Xx  0.401818606E+03 -0.756182322E+03 -0.452897610E+03
    11
 # iter = 58250  time[fs]=58.25000
   N -0.114741552E+01 -0.279075077E+01  0.250434550E+01
   N -0.455820650E+03  0.858121914E+03 -0.229601080E+04
   C -0.130880947E+01  0.130807488E+01  0.248955654E+01
   C  0.133436063E+01  0.108181730E+01  0.251970032E+01
   C -0.206597871E+01  0.843722844E-01  0.251562057E+01
   C  0.180036209E+01 -0.916552686E-01  0.250891098E+01
   H -0.106416885E+02  0.172804603E+02  0.275275440E+01
   H  0.109157640E+02  0.172119872E+02  0.251312936E+01
   H -0.218120702E+02 -0.334422115E+01  0.264789409E+01
   H  0.214874837E+02 -0.664341038E+01  0.233245154E+01
  Xx  0.403558997E+03 -0.759457967E+03 -0.454873338E+03
    11
 # iter = 58500  time[fs]=58.50000
   N -0.115069700E+01 -0.279700740E+01  0.250447761E+01
   N -0.457792555E+03  0.861833791E+03 -0.230593971E+04
   C -0.130962311E+01  0.130216024E+01  0.248904355E+01
   C  0.133482787E+01  0.107287840E+01  0.251980216E+01
   C -0.206400174E+01  0.865914276E-01  0.251592247E+01
   C  0.179961572E+01 -0.853341455E-01  0.250866954E+01
   H -0.106943806E+02  0.173643497E+02  0.275408635E+01
   H  0.109709304E+02  0.172951740E+02  0.251313542E+01
   H -0.219173084E+02 -0.336578126E+01  0.264857103E+01
   H  0.215899220E+02 -0.668123972E+01  0.233155913E+01
  Xx  0.405299389E+03 -0.762733611E+03 -0.456849065E+03
    11
 # iter = 58750  time[fs]=58.75000
   N -0.115402402E+01 -0.280323825E+01  0.250459678E+01
   N -0.459764460E+03  0.865545667E+03 -0.231586862E+04
   C -0.131040571E+01  0.129615385E+01  0.248853025E+01
   C  0.133510289E+01  0.106424590E+01  0.251991569E+01
   C -0.206203305E+01  0.888673120E-01  0.251622118E+01
   C  0.179903899E+01 -0.792993441E-01  0.250840556E+01
   H -0.107471082E+02  0.174482924E+02  0.275541941E+01
   H  0.110261368E+02  0.173784053E+02  0.251314148E+01
   H -0.220225998E+02 -0.338736246E+01  0.264924796E+01
   H  0.216924047E+02 -0.671909347E+01  0.233066671E+01
  Xx  0.407039780E+03 -0.766009256E+03 -0.458824793E+03
    11
 # iter = 59000  time[fs]=59.00000
   N -0.115741337E+01 -0.280943642E+01  0.250471260E+01
   N -0.461736365E+03  0.869257544E+03 -0.232579753E+04
   C -0.131120342E+01  0.129012602E+01  0.248803688E+01
   C  0.133527786E+01  0.105593880E+01  0.252003133E+01
   C -0.206002048E+01  0.911316749E-01  0.251651012E+01
   C  0.179855994E+01 -0.736268878E-01  0.250814020E+01
   H -0.107998713E+02  0.175322884E+02  0.275675357E+01
   H  0.110813831E+02  0.174616809E+02  0.251314754E+01
   H -0.221279446E+02 -0.340896476E+01  0.264992490E+01
   H  0.217949318E+02 -0.675697166E+01  0.232977430E+01
  Xx  0.408780171E+03 -0.769284900E+03 -0.460800520E+03
    11
 # iter = 59250  time[fs]=59.25000
   N -0.116087288E+01 -0.281560009E+01  0.250482463E+01
   N -0.463708269E+03  0.872969420E+03 -0.233572644E+04
   C -0.131198113E+01  0.128407326E+01  0.248751888E+01
   C  0.133525083E+01  0.104797721E+01  0.252013126E+01
   C -0.205799441E+01  0.933672288E-01  0.251681410E+01
   C  0.179826816E+01 -0.683177174E-01  0.250788183E+01
   H -0.108526700E+02  0.176163377E+02  0.275808885E+01
   H  0.111366691E+02  0.175450010E+02  0.251315360E+01
   H -0.222333426E+02 -0.343058812E+01  0.265060184E+01
   H  0.218975034E+02 -0.679487416E+01  0.232888189E+01
  Xx  0.410520562E+03 -0.772560545E+03 -0.462776248E+03
    11
 # iter = 59500  time[fs]=59.50000
   N -0.116439763E+01 -0.282173267E+01  0.250493090E+01
   N -0.465680174E+03  0.876681297E+03 -0.234565535E+04
   C -0.131275211E+01  0.127801306E+01  0.248700008E+01
   C  0.133505641E+01  0.104042587E+01  0.252026801E+01
   C -0.205593705E+01  0.955919799E-01  0.251712609E+01
   C  0.179813991E+01 -0.634114323E-01  0.250759503E+01
   H -0.109055042E+02  0.177004401E+02  0.275942524E+01
   H  0.111919914E+02  0.176283655E+02  0.251315966E+01
   H -0.223387939E+02 -0.345223179E+01  0.265127878E+01
   H  0.220001193E+02 -0.683279942E+01  0.232798948E+01
  Xx  0.412260953E+03 -0.775836189E+03 -0.464751975E+03
    11
 # iter = 59750  time[fs]=59.75000
   N -0.116799480E+01 -0.282782716E+01  0.250503042E+01
   N -0.467652079E+03  0.880393173E+03 -0.235558426E+04
   C -0.131351384E+01  0.127197560E+01  0.248649197E+01
   C  0.133464160E+01  0.103328032E+01  0.252036035E+01
   C -0.205385054E+01  0.977761793E-01  0.251744058E+01
   C  0.179820653E+01 -0.589456858E-01  0.250734426E+01
   H -0.109583727E+02  0.177845898E+02  0.276076274E+01
   H  0.112473492E+02  0.177117743E+02  0.251316572E+01
   H -0.224442985E+02 -0.347389545E+01  0.265195572E+01
   H  0.221027797E+02 -0.687074688E+01  0.232709706E+01
  Xx  0.414001344E+03 -0.779111834E+03 -0.466727702E+03
    11
 # iter = 60000  time[fs]=60.00000
   N -0.117167052E+01 -0.283388878E+01  0.250511962E+01
   N -0.469623984E+03  0.884105050E+03 -0.236551317E+04
   C -0.131427111E+01  0.126595940E+01  0.248594750E+01
   C  0.133403786E+01  0.102662956E+01  0.252048514E+01
   C -0.205175040E+01  0.998973854E-01  0.251775887E+01
   C  0.179846055E+01 -0.549719743E-01  0.250705672E+01
   H -0.110112751E+02  0.178687839E+02  0.276210135E+01
   H  0.113027425E+02  0.177952276E+02  0.251317178E+01
   H -0.225498529E+02 -0.349557909E+01  0.265263266E+01
   H  0.222054845E+02 -0.690871655E+01  0.232620465E+01
  Xx  0.415741735E+03 -0.782387478E+03 -0.468703430E+03
