    11
 # iter =     0  time[fs]= 0.00000
   N -0.668466338E+00 -0.116463086E+01  0.250000000E+01
   N  0.668466338E+00 -0.116463086E+01  0.250000000E+01
   C -0.692277627E+00  0.124916000E+01  0.250000000E+01
   C  0.692277627E+00  0.124916000E+01  0.250000000E+01
   C -0.132315667E+01  0.433975300E-03  0.250000000E+01
   C  0.132315667E+01  0.433975300E-03  0.250000000E+01
   H -0.127180384E+01  0.216832769E+01  0.250000000E+01
   H  0.127180384E+01  0.216832769E+01  0.250000000E+01
   H -0.240769469E+01 -0.832907948E-01  0.250000000E+01
   H  0.240769469E+01 -0.832907948E-01  0.250000000E+01
  Xx  0.692277627E+00  0.124916000E+01  0.200000000E+02
    11
 # iter =   250  time[fs]= 0.25000
   N -0.668479288E+00 -0.116465141E+01  0.249999771E+01
   N  0.668478422E+00 -0.116465147E+01  0.249999752E+01
   C -0.692272987E+00  0.124913879E+01  0.249999638E+01
   C  0.692271826E+00  0.124913875E+01  0.249999612E+01
   C -0.132313046E+01  0.427652419E-03  0.249999661E+01
   C  0.132312927E+01  0.427555692E-03  0.249999617E+01
   H -0.127181385E+01  0.216833134E+01  0.249997050E+01
   H  0.127180998E+01  0.216833076E+01  0.249996825E+01
   H -0.240778856E+01 -0.832988092E-01  0.249997406E+01
   H  0.240778474E+01 -0.832992700E-01  0.249997053E+01
  Xx  0.692285472E+00  0.124917307E+01  0.835703896E+01
    11
 # iter =   500  time[fs]= 0.50000
   N -0.668548028E+00 -0.116476243E+01  0.250002785E+01
   N  0.668493972E+00 -0.116483911E+01  0.250003134E+01
   C -0.692569606E+00  0.124911115E+01  0.249999613E+01
   C -0.672840669E+00 -0.141883893E+01 -0.154247507E+01
   C -0.132315155E+01  0.311095111E-03  0.250002527E+01
   C  0.132322571E+01  0.140265902E-03  0.249999911E+01
   H -0.127250705E+01  0.216903481E+01  0.249995121E+01
   H  0.127391556E+01  0.217115979E+01  0.250231238E+01
   H -0.240858447E+01 -0.833587965E-01  0.249997155E+01
   H  0.240897045E+01 -0.835644532E-01  0.249995101E+01
  Xx  0.175021510E+01  0.331660123E+01  0.210615727E+00
    11
 # iter =   750  time[fs]= 0.75000
   N -0.668795028E+00 -0.116528633E+01  0.250007490E+01
   N  0.668709367E+00 -0.116530961E+01  0.250006807E+01
   C -0.692965071E+00  0.124928616E+01  0.249999323E+01
   C -0.342191561E+01 -0.679164522E+01 -0.967855807E+01
   C -0.132324191E+01  0.127191998E-03  0.250005153E+01
   C  0.132347317E+01 -0.178775679E-03  0.250000711E+01
   H -0.127575873E+01  0.217418988E+01  0.250007440E+01
   H  0.127950474E+01  0.217840276E+01  0.251089512E+01
   H -0.241339265E+01 -0.836828760E-01  0.249997328E+01
   H  0.241537313E+01 -0.842974281E-01  0.250013973E+01
  Xx  0.388161161E+01  0.748179416E+01 -0.439662389E+01
    11
 # iter =  1000  time[fs]= 1.00000
   N -0.669237562E+00 -0.116634973E+01  0.250020932E+01
   N  0.669095313E+00 -0.116614350E+01  0.250005293E+01
   C -0.693210600E+00  0.124954325E+01  0.250000790E+01
   C -0.617080376E+01 -0.121641009E+02 -0.178141622E+02
   C -0.132343054E+01  0.656678485E-04  0.250006406E+01
   C  0.132365300E+01 -0.348240433E-03  0.250002073E+01
   H -0.128141460E+01  0.218410624E+01  0.250035213E+01
   H  0.128631089E+01  0.218787656E+01  0.251968579E+01
   H -0.242329545E+01 -0.843237225E-01  0.249983549E+01
   H  0.242789660E+01 -0.854313907E-01  0.250055502E+01
  Xx  0.601325844E+01  0.116473892E+02 -0.900428741E+01
    11
 # iter =  1250  time[fs]= 1.25000
   N -0.669961603E+00 -0.116791581E+01  0.250038255E+01
   N  0.669848730E+00 -0.116737269E+01  0.250002558E+01
   C -0.693288232E+00  0.124997978E+01  0.250004890E+01
   C -0.891970373E+01 -0.175365791E+02 -0.259497744E+02
   C -0.132380515E+01  0.711819969E-04  0.250013002E+01
   C  0.132383680E+01 -0.280013164E-03  0.250005987E+01
   H -0.128931164E+01  0.219799864E+01  0.250045995E+01
   H  0.129426866E+01  0.219914110E+01  0.252854583E+01
   H -0.243820800E+01 -0.854735002E-01  0.249958162E+01
   H  0.244546774E+01 -0.869052749E-01  0.250094674E+01
  Xx  0.814499052E+01  0.158130746E+02 -0.136120549E+02
    11
 # iter =  1500  time[fs]= 1.50000
   N -0.670847917E+00 -0.116992138E+01  0.250052652E+01
   N  0.670818678E+00 -0.116888983E+01  0.250005197E+01
   C -0.693108735E+00  0.125071358E+01  0.250011946E+01
   C -0.116686102E+02 -0.229090702E+02 -0.340853972E+02
   C -0.132446773E+01 -0.332523962E-04  0.250020930E+01
   C  0.132414208E+01 -0.659170681E-04  0.250011581E+01
   H -0.129916791E+01  0.221549917E+01  0.250057940E+01
   H  0.130323075E+01  0.221242553E+01  0.253739829E+01
   H -0.245806283E+01 -0.875761087E-01  0.249931335E+01
   H  0.246743507E+01 -0.886987377E-01  0.250132624E+01
  Xx  0.102767597E+02  0.199788310E+02 -0.182198788E+02
    11
 # iter =  1750  time[fs]= 1.75000
   N -0.672036892E+00 -0.117220311E+01  0.250064190E+01
   N  0.672112713E+00 -0.117077822E+01  0.250009756E+01
   C -0.692711699E+00  0.125175770E+01  0.250017427E+01
   C -0.144175212E+02 -0.282815702E+02 -0.422210225E+02
   C -0.132525636E+01 -0.292203830E-03  0.250030797E+01
   C  0.132444974E+01  0.389897918E-03  0.250016589E+01
   H -0.131085988E+01  0.223580417E+01  0.250066124E+01
   H  0.131323322E+01  0.222730620E+01  0.254627574E+01
   H -0.248253850E+01 -0.902211667E-01  0.249923011E+01
   H  0.249359538E+01 -0.908945722E-01  0.250169551E+01
  Xx  0.124085516E+02  0.241446314E+02 -0.228277381E+02
    11
 # iter =  2000  time[fs]= 2.00000
   N -0.673484492E+00 -0.117475352E+01  0.250072429E+01
   N  0.673816080E+00 -0.117308517E+01  0.250016441E+01
   C -0.692049510E+00  0.125289689E+01  0.250023738E+01
   C -0.171664362E+02 -0.336540781E+02 -0.503566478E+02
   C -0.132643422E+01 -0.598892092E-03  0.250041503E+01
   C  0.132467955E+01  0.105634731E-02  0.250021494E+01
   H -0.132417370E+01  0.225937663E+01  0.250093082E+01
   H  0.132425059E+01  0.224397509E+01  0.255516232E+01
   H -0.251011444E+01 -0.931104660E-01  0.249934361E+01
   H  0.252379372E+01 -0.941239951E-01  0.250212741E+01
  Xx  0.145403587E+02  0.283104613E+02 -0.274356216E+02
    11
 # iter =  2250  time[fs]= 2.25000
   N -0.675154724E+00 -0.117751876E+01  0.250079030E+01
   N  0.675714150E+00 -0.117600399E+01  0.250028031E+01
   C -0.691225607E+00  0.125436340E+01  0.250031179E+01
   C -0.199153520E+02 -0.390265872E+02 -0.584922731E+02
   C -0.132801260E+01 -0.106912235E-02  0.250053416E+01
   C  0.132498964E+01  0.210125323E-02  0.250026169E+01
   H -0.133920038E+01  0.228493874E+01  0.250097641E+01
   H  0.133636889E+01  0.226262325E+01  0.256414839E+01
   H -0.253989591E+01 -0.962807599E-01  0.249939599E+01
   H  0.255787413E+01 -0.980199726E-01  0.250245543E+01
  Xx  0.166721765E+02  0.324763119E+02 -0.320435230E+02
    11
 # iter =  2500  time[fs]= 2.50000
   N -0.676983923E+00 -0.118054169E+01  0.250084226E+01
   N  0.677802713E+00 -0.117930835E+01  0.250039035E+01
   C -0.690275243E+00  0.125609645E+01  0.250039358E+01
   C -0.226642677E+02 -0.443990964E+02 -0.666278984E+02
   C -0.132989116E+01 -0.163623370E-02  0.250063808E+01
   C  0.132544665E+01  0.335117406E-02  0.250031744E+01
   H -0.135546507E+01  0.231240493E+01  0.250107211E+01
   H  0.134945209E+01  0.228309558E+01  0.257323217E+01
   H -0.257282781E+01 -0.997134928E-01  0.249957567E+01
   H  0.259519933E+01 -0.102101009E+00  0.250278631E+01
  Xx  0.188040032E+02  0.366421803E+02 -0.366514419E+02
    11
 # iter =  2750  time[fs]= 2.75000
   N -0.678965813E+00 -0.118376710E+01  0.250091753E+01
   N  0.680167703E+00 -0.118297144E+01  0.250048610E+01
   C -0.689170866E+00  0.125808189E+01  0.250044931E+01
   C -0.254131834E+02 -0.497716055E+02 -0.747635237E+02
   C -0.133212554E+01 -0.236792219E-02  0.250074173E+01
   C  0.132605559E+01  0.473244332E-02  0.250038350E+01
   H -0.137284895E+01  0.234167150E+01  0.250112266E+01
   H  0.136380362E+01  0.230531431E+01  0.258234156E+01
   H -0.260861925E+01 -0.103580909E+00  0.250002336E+01
   H  0.263470686E+01 -0.106220674E+00  0.250310493E+01
  Xx  0.209358388E+02  0.408080664E+02 -0.412593776E+02
    11
 # iter =  3000  time[fs]= 3.00000
   N -0.681159116E+00 -0.118721920E+01  0.250104155E+01
   N  0.682825009E+00 -0.118705192E+01  0.250056178E+01
   C -0.687963480E+00  0.126037743E+01  0.250053416E+01
   C -0.281620992E+02 -0.551441147E+02 -0.828991490E+02
   C -0.133481793E+01 -0.319839601E-02  0.250081708E+01
   C  0.132694315E+01  0.621887038E-02  0.250044427E+01
   H -0.139115621E+01  0.237286008E+01  0.250137364E+01
   H  0.137921218E+01  0.232922445E+01  0.259155234E+01
   H -0.264654163E+01 -0.107645152E+00  0.250018260E+01
   H  0.267594932E+01 -0.110095987E+00  0.250334975E+01
  Xx  0.230676828E+02  0.449739685E+02 -0.458673175E+02
    11
 # iter =  3250  time[fs]= 3.25000
   N -0.683707960E+00 -0.119103675E+01  0.250121000E+01
   N  0.685864923E+00 -0.119148409E+01  0.250062071E+01
   C -0.686770181E+00  0.126284504E+01  0.250065043E+01
   C -0.309110149E+02 -0.605166238E+02 -0.910347742E+02
   C -0.133789627E+01 -0.401126600E-02  0.250085949E+01
   C  0.132814966E+01  0.786104322E-02  0.250049716E+01
   H -0.141047572E+01  0.240605509E+01  0.250154413E+01
   H  0.139582924E+01  0.235495333E+01  0.260085415E+01
   H -0.268571613E+01 -0.111934219E+00  0.250014271E+01
   H  0.271900347E+01 -0.113970770E+00  0.250368112E+01
  Xx  0.251995290E+02  0.491398733E+02 -0.504752575E+02
    11
 # iter =  3500  time[fs]= 3.50000
   N -0.686462624E+00 -0.119525547E+01  0.250136107E+01
   N  0.689188156E+00 -0.119633852E+01  0.250067648E+01
   C -0.685473050E+00  0.126549466E+01  0.250075388E+01
   C -0.336599307E+02 -0.658891330E+02 -0.991703995E+02
   C -0.134151385E+01 -0.474001254E-02  0.250093778E+01
   C  0.132952991E+01  0.967451561E-02  0.250054428E+01
   H -0.143091744E+01  0.244150079E+01  0.250162874E+01
   H  0.141340869E+01  0.238242716E+01  0.261025704E+01
   H -0.272544641E+01 -0.116175290E+00  0.250015688E+01
   H  0.276415720E+01 -0.117989900E+00  0.250410078E+01
  Xx  0.273313752E+02  0.533057781E+02 -0.550831975E+02
    11
 # iter =  3750  time[fs]= 3.75000
   N -0.689458754E+00 -0.119986531E+01  0.250150726E+01
   N  0.692937600E+00 -0.120148910E+01  0.250072646E+01
   C -0.684051804E+00  0.126838441E+01  0.250086156E+01
   C -0.364088464E+02 -0.712616421E+02 -0.107306025E+03
   C -0.134558898E+01 -0.544749869E-02  0.250101943E+01
   C  0.133091318E+01  0.116009647E-01  0.250058032E+01
   H -0.145207206E+01  0.247850379E+01  0.250164130E+01
   H  0.143205877E+01  0.241146529E+01  0.261971975E+01
   H -0.276633493E+01 -0.120538372E+00  0.250010660E+01
   H  0.281170342E+01 -0.122038499E+00  0.250435522E+01
  Xx  0.294632213E+02  0.574716829E+02 -0.596911374E+02
    11
 # iter =  4000  time[fs]= 4.00000
   N -0.692724866E+00 -0.120481951E+01  0.250166377E+01
   N  0.697005196E+00 -0.120690061E+01  0.250076763E+01
   C -0.682800030E+00  0.127160114E+01  0.250093804E+01
   C -0.391577621E+02 -0.766341513E+02 -0.115441650E+03
   C -0.134992006E+01 -0.609704829E-02  0.250110536E+01
   C  0.133255728E+01  0.134621396E-01  0.250064039E+01
   H -0.147355893E+01  0.251620617E+01  0.250181009E+01
   H  0.145178333E+01  0.244235051E+01  0.262933919E+01
   H -0.280878699E+01 -0.125040441E+00  0.250010561E+01
   H  0.286088824E+01 -0.126083794E+00  0.250479169E+01
  Xx  0.315950675E+02  0.616375877E+02 -0.642990774E+02
    11
 # iter =  4250  time[fs]= 4.25000
   N -0.696221235E+00 -0.121013570E+01  0.250182145E+01
   N  0.701368734E+00 -0.121257014E+01  0.250081604E+01
   C -0.681619233E+00  0.127507704E+01  0.250102667E+01
   C -0.419066779E+02 -0.820066604E+02 -0.123577275E+03
   C -0.135455074E+01 -0.668429031E-02  0.250115816E+01
   C  0.133442422E+01  0.153187999E-01  0.250067997E+01
   H -0.149540712E+01  0.255527446E+01  0.250194799E+01
   H  0.147258091E+01  0.247491122E+01  0.263912841E+01
   H -0.285247870E+01 -0.129754588E+00  0.250009178E+01
   H  0.291197307E+01 -0.129930540E+00  0.250520192E+01
  Xx  0.337269137E+02  0.658034925E+02 -0.689070173E+02
    11
 # iter =  4500  time[fs]= 4.50000
   N -0.699912437E+00 -0.121574861E+01  0.250199103E+01
   N  0.705981607E+00 -0.121844273E+01  0.250084950E+01
   C -0.680395481E+00  0.127878361E+01  0.250110364E+01
   C -0.446555936E+02 -0.873791696E+02 -0.131712901E+03
   C -0.135951807E+01 -0.731239296E-02  0.250122798E+01
   C  0.133634845E+01  0.170809260E-01  0.250073328E+01
   H -0.151779004E+01  0.259575108E+01  0.250205965E+01
   H  0.149426339E+01  0.250920591E+01  0.264897628E+01
   H -0.289734709E+01 -0.134585725E+00  0.250015428E+01
   H  0.296522598E+01 -0.133943922E+00  0.250565128E+01
  Xx  0.358587598E+02  0.699693972E+02 -0.735149573E+02
    11
 # iter =  4750  time[fs]= 4.75000
   N -0.703734697E+00 -0.122174238E+01  0.250221214E+01
   N  0.710872765E+00 -0.122447913E+01  0.250082951E+01
   C -0.679131725E+00  0.128271750E+01  0.250116603E+01
   C -0.474045094E+02 -0.927516787E+02 -0.139848526E+03
   C -0.136476670E+01 -0.776994563E-02  0.250127228E+01
   C  0.133827300E+01  0.188770689E-01  0.250077835E+01
   H -0.154066997E+01  0.263684085E+01  0.250213123E+01
   H  0.151673245E+01  0.254500545E+01  0.265894634E+01
   H -0.294379167E+01 -0.139617110E+00  0.250027977E+01
   H  0.302046388E+01 -0.138155540E+00  0.250618607E+01
  Xx  0.379906060E+02  0.741353020E+02 -0.781228973E+02
    11
 # iter =  5000  time[fs]= 5.00000
   N -0.707687116E+00 -0.122808672E+01  0.250244068E+01
   N  0.715997427E+00 -0.123074049E+01  0.250080569E+01
   C -0.677916461E+00  0.128682249E+01  0.250122868E+01
   C -0.501534251E+02 -0.981241879E+02 -0.147984151E+03
   C -0.137035526E+01 -0.814145933E-02  0.250128794E+01
   C  0.134032261E+01  0.206357559E-01  0.250084429E+01
   H -0.156396701E+01  0.267901550E+01  0.250225046E+01
   H  0.154006182E+01  0.258236081E+01  0.266909746E+01
   H -0.299086635E+01 -0.144805033E+00  0.250031449E+01
   H  0.307749098E+01 -0.142454439E+00  0.250673871E+01
  Xx  0.401224522E+02  0.783012068E+02 -0.827308372E+02
    11
 # iter =  5250  time[fs]= 5.25000
   N -0.711925811E+00 -0.123472209E+01  0.250269272E+01
   N  0.721435852E+00 -0.123714792E+01  0.250077051E+01
   C -0.676796534E+00  0.129108156E+01  0.250130575E+01
   C -0.529023408E+02 -0.103496697E+03 -0.156119777E+03
   C -0.137624604E+01 -0.840057108E-02  0.250129549E+01
   C  0.134259461E+01  0.223953121E-01  0.250088466E+01
   H -0.158749199E+01  0.272219183E+01  0.250244159E+01
   H  0.156433843E+01  0.262114337E+01  0.267932337E+01
   H -0.303840694E+01 -0.150172675E+00  0.250034103E+01
   H  0.313577154E+01 -0.146729680E+00  0.250724441E+01
  Xx  0.422542983E+02  0.824671116E+02 -0.873387772E+02
    11
 # iter =  5500  time[fs]= 5.50000
   N -0.716485614E+00 -0.124163028E+01  0.250293967E+01
   N  0.727155683E+00 -0.124364340E+01  0.250069768E+01
   C -0.675697919E+00  0.129544303E+01  0.250138532E+01
   C -0.556512566E+02 -0.108869206E+03 -0.164255402E+03
   C -0.138236379E+01 -0.861101410E-02  0.250130022E+01
   C  0.134503666E+01  0.241318119E-01  0.250097164E+01
   H -0.161156078E+01  0.276635769E+01  0.250247248E+01
   H  0.158961298E+01  0.266152737E+01  0.268969633E+01
   H -0.308657987E+01 -0.155674622E+00  0.250036904E+01
   H  0.319507291E+01 -0.151053891E+00  0.250771313E+01
  Xx  0.443861445E+02  0.866330164E+02 -0.919467171E+02
    11
 # iter =  5750  time[fs]= 5.75000
   N -0.721421717E+00 -0.124875935E+01  0.250317619E+01
   N  0.733305503E+00 -0.125015924E+01  0.250066358E+01
   C -0.674569552E+00  0.129991607E+01  0.250146469E+01
   C -0.584001723E+02 -0.114241715E+03 -0.172391027E+03
   C -0.138874678E+01 -0.889155264E-02  0.250130623E+01
   C  0.134757302E+01  0.258037880E-01  0.250102954E+01
   H -0.163615061E+01  0.281173966E+01  0.250241680E+01
   H  0.161580371E+01  0.270328070E+01  0.270017612E+01
   H -0.313530743E+01 -0.161451658E+00  0.250041557E+01
   H  0.325560405E+01 -0.155603422E+00  0.250819846E+01
  Xx  0.465179907E+02  0.907989212E+02 -0.965546571E+02
    11
 # iter =  6000  time[fs]= 6.00000
   N -0.726551371E+00 -0.125609154E+01  0.250339095E+01
   N  0.739693199E+00 -0.125675205E+01  0.250059795E+01
   C -0.673427532E+00  0.130464727E+01  0.250153583E+01
   C -0.611490881E+02 -0.119614224E+03 -0.180526652E+03
   C -0.139540130E+01 -0.924458161E-02  0.250135385E+01
   C  0.135010791E+01  0.274324987E-01  0.250109147E+01
   H -0.166093325E+01  0.285803807E+01  0.250235171E+01
   H  0.164284426E+01  0.274634831E+01  0.271073969E+01
   H -0.318448346E+01 -0.167429606E+00  0.250048144E+01
   H  0.331779158E+01 -0.160298922E+00  0.250868132E+01
  Xx  0.486498369E+02  0.949648260E+02 -0.101162597E+03
    11
 # iter =  6250  time[fs]= 6.25000
   N -0.731831578E+00 -0.126364490E+01  0.250359588E+01
   N  0.746298897E+00 -0.126334051E+01  0.250051838E+01
   C -0.672354121E+00  0.130957122E+01  0.250161652E+01
   C -0.638980038E+02 -0.124986734E+03 -0.188662278E+03
   C -0.140217209E+01 -0.961890158E-02  0.250138541E+01
   C  0.135264774E+01  0.289592282E-01  0.250118376E+01
   H -0.168596561E+01  0.290500499E+01  0.250219620E+01
   H  0.167071302E+01  0.279093857E+01  0.272142207E+01
   H -0.323472730E+01 -0.173676063E+00  0.250047373E+01
   H  0.338175431E+01 -0.165176893E+00  0.250914673E+01
  Xx  0.507816830E+02  0.991307308E+02 -0.105770537E+03
    11
 # iter =  6500  time[fs]= 6.50000
   N -0.737267661E+00 -0.127141619E+01  0.250379542E+01
   N  0.753070434E+00 -0.126996740E+01  0.250048731E+01
   C -0.671368082E+00  0.131457530E+01  0.250168418E+01
   C -0.666469196E+02 -0.130359243E+03 -0.196797903E+03
   C -0.140903030E+01 -0.982923796E-02  0.250144378E+01
   C  0.135513646E+01  0.304595067E-01  0.250121407E+01
   H -0.171145498E+01  0.295270434E+01  0.250196527E+01
   H  0.169931008E+01  0.283690326E+01  0.273220414E+01
   H -0.328600223E+01 -0.180102423E+00  0.250054063E+01
   H  0.344752508E+01 -0.170438648E+00  0.250955032E+01
  Xx  0.529135292E+02  0.103296636E+03 -0.110378477E+03
    11
 # iter =  6750  time[fs]= 6.75000
   N -0.742862371E+00 -0.127930108E+01  0.250395012E+01
   N  0.760013439E+00 -0.127662627E+01  0.250046365E+01
   C -0.670527213E+00  0.131953248E+01  0.250177920E+01
   C -0.693958353E+02 -0.135731752E+03 -0.204933528E+03
   C -0.141597419E+01 -0.989556767E-02  0.250147260E+01
   C  0.135779946E+01  0.318203289E-01  0.250127253E+01
   H -0.173753049E+01  0.300165795E+01  0.250169074E+01
   H  0.172867245E+01  0.288412376E+01  0.274308662E+01
   H -0.333807503E+01 -0.186674241E+00  0.250056189E+01
   H  0.351440127E+01 -0.175951960E+00  0.250996038E+01
  Xx  0.550453754E+02  0.107462540E+03 -0.114986417E+03
    11
 # iter =  7000  time[fs]= 7.00000
   N -0.748506997E+00 -0.128727283E+01  0.250413575E+01
   N  0.766995585E+00 -0.128331752E+01  0.250038590E+01
   C -0.669642976E+00  0.132441988E+01  0.250185940E+01
   C -0.721447510E+02 -0.141104261E+03 -0.213069154E+03
   C -0.142302363E+01 -0.988813921E-02  0.250150292E+01
   C  0.136055804E+01  0.331996770E-01  0.250136396E+01
   H -0.176441374E+01  0.305199379E+01  0.250135997E+01
   H  0.175886961E+01  0.293248664E+01  0.275407968E+01
   H -0.339112516E+01 -0.193467313E+00  0.250052768E+01
   H  0.358251473E+01 -0.181627836E+00  0.251033643E+01
  Xx  0.571772215E+02  0.111628445E+03 -0.119594357E+03
    11
 # iter =  7250  time[fs]= 7.25000
   N -0.754238901E+00 -0.129527450E+01  0.250433771E+01
   N  0.774018284E+00 -0.128992958E+01  0.250029000E+01
   C -0.668776613E+00  0.132931763E+01  0.250194464E+01
   C -0.748936668E+02 -0.146476770E+03 -0.221204779E+03
   C -0.143021487E+01 -0.992518485E-02  0.250154287E+01
   C  0.136333895E+01  0.344629137E-01  0.250144245E+01
   H -0.179205236E+01  0.310341600E+01  0.250098899E+01
   H  0.178987744E+01  0.298213727E+01  0.276517464E+01
   H -0.344493190E+01 -0.200379141E+00  0.250049705E+01
   H  0.365198576E+01 -0.187481097E+00  0.251060821E+01
  Xx  0.593090677E+02  0.115794350E+03 -0.124202297E+03
    11
 # iter =  7500  time[fs]= 7.50000
   N -0.759994300E+00 -0.130340762E+01  0.250453868E+01
   N  0.781174607E+00 -0.129641615E+01  0.250018302E+01
   C -0.668031952E+00  0.133436482E+01  0.250201833E+01
   C -0.776425825E+02 -0.151849279E+03 -0.229340404E+03
   C -0.143749210E+01 -0.993680845E-02  0.250158546E+01
   C  0.136617337E+01  0.355199613E-01  0.250153422E+01
   H -0.182016237E+01  0.315547329E+01  0.250055317E+01
   H  0.182170014E+01  0.303294939E+01  0.277645046E+01
   H -0.349974073E+01 -0.207454717E+00  0.250049992E+01
   H  0.372276301E+01 -0.193571028E+00  0.251088630E+01
  Xx  0.614409139E+02  0.119960255E+03 -0.128810237E+03
    11
 # iter =  7750  time[fs]= 7.75000
   N -0.765841305E+00 -0.131153486E+01  0.250474060E+01
   N  0.788497101E+00 -0.130285398E+01  0.250006593E+01
   C -0.667407312E+00  0.133954473E+01  0.250213787E+01
   C -0.803914983E+02 -0.157221789E+03 -0.237476029E+03
   C -0.144484556E+01 -0.100093337E-01  0.250159353E+01
   C  0.136892085E+01  0.364627719E-01  0.250161033E+01
   H -0.184871579E+01  0.320817932E+01  0.250010423E+01
   H  0.185423821E+01  0.308479923E+01  0.278785802E+01
   H -0.355548003E+01 -0.214734392E+00  0.250046657E+01
   H  0.379520820E+01 -0.199965576E+00  0.251112011E+01
  Xx  0.635727600E+02  0.124126160E+03 -0.133418177E+03
    11
 # iter =  8000  time[fs]= 8.00000
   N -0.771786154E+00 -0.131961177E+01  0.250498657E+01
   N  0.795827873E+00 -0.130926180E+01  0.249998280E+01
   C -0.666813298E+00  0.134476526E+01  0.250224796E+01
   C -0.831404140E+02 -0.162594298E+03 -0.245611655E+03
   C -0.145205553E+01 -0.101930226E-01  0.250153409E+01
   C  0.137160498E+01  0.373482955E-01  0.250165492E+01
   H -0.187768834E+01  0.326170172E+01  0.249962229E+01
   H  0.188748392E+01  0.313777693E+01  0.279939391E+01
   H -0.361263374E+01 -0.222295284E+00  0.250034909E+01
   H  0.386922156E+01 -0.206659040E+00  0.251132638E+01
  Xx  0.657046062E+02  0.128292064E+03 -0.138026117E+03
    11
 # iter =  8250  time[fs]= 8.25000
   N -0.777795908E+00 -0.132771131E+01  0.250524837E+01
   N  0.803087924E+00 -0.131558031E+01  0.249983245E+01
   C -0.666314319E+00  0.135007150E+01  0.250238890E+01
   C -0.858893297E+02 -0.167966807E+03 -0.253747280E+03
   C -0.145914124E+01 -0.103686555E-01  0.250149346E+01
   C  0.137439342E+01  0.381200144E-01  0.250173072E+01
   H -0.190698331E+01  0.331590492E+01  0.249916315E+01
   H  0.192139411E+01  0.319185271E+01  0.281107058E+01
   H -0.367112349E+01 -0.230118484E+00  0.250020553E+01
   H  0.394436574E+01 -0.213578542E+00  0.251149848E+01
  Xx  0.678364524E+02  0.132457969E+03 -0.142634057E+03
    11
 # iter =  8500  time[fs]= 8.50000
   N -0.783882693E+00 -0.133583778E+01  0.250552738E+01
   N  0.810366263E+00 -0.132180420E+01  0.249968115E+01
   C -0.665916489E+00  0.135534682E+01  0.250250975E+01
   C -0.886382455E+02 -0.173339316E+03 -0.261882905E+03
   C -0.146615031E+01 -0.104841707E-01  0.250142853E+01
   C  0.137724330E+01  0.387622834E-01  0.250179510E+01
   H -0.193674564E+01  0.337093230E+01  0.249866023E+01
   H  0.195587117E+01  0.324693352E+01  0.282285168E+01
   H -0.373085979E+01 -0.238199514E+00  0.250002539E+01
   H  0.402070817E+01 -0.220732527E+00  0.251160646E+01
  Xx  0.699682985E+02  0.136623874E+03 -0.147241997E+03
    11
 # iter =  8750  time[fs]= 8.75000
   N -0.790034463E+00 -0.134395023E+01  0.250578773E+01
   N  0.817678941E+00 -0.132793443E+01  0.249955406E+01
   C -0.665511049E+00  0.136065689E+01  0.250265972E+01
   C -0.913871612E+02 -0.178711825E+03 -0.270018531E+03
   C -0.147309390E+01 -0.106114004E-01  0.250134232E+01
   C  0.138000439E+01  0.392570372E-01  0.250185341E+01
   H -0.196689653E+01  0.342669744E+01  0.249813531E+01
   H  0.199087150E+01  0.330302127E+01  0.283476868E+01
   H -0.379184202E+01 -0.246543727E+00  0.249979866E+01
   H  0.409850214E+01 -0.228148066E+00  0.251169235E+01
  Xx  0.721001447E+02  0.140789779E+03 -0.151849937E+03
    11
 # iter =  9000  time[fs]= 9.00000
   N -0.796327294E+00 -0.135198559E+01  0.250602736E+01
   N  0.825074942E+00 -0.133391534E+01  0.249946339E+01
   C -0.665187512E+00  0.136615896E+01  0.250280819E+01
   C -0.941360770E+02 -0.184084334E+03 -0.278154156E+03
   C -0.147999422E+01 -0.109395804E-01  0.250126806E+01
   C  0.138282591E+01  0.395643439E-01  0.250187821E+01
   H -0.199736524E+01  0.348299730E+01  0.249761226E+01
   H  0.202646620E+01  0.336004086E+01  0.284683794E+01
   H -0.385405524E+01 -0.255099339E+00  0.249949593E+01
   H  0.417738941E+01 -0.235803936E+00  0.251178276E+01
  Xx  0.742319909E+02  0.144955683E+03 -0.156457877E+03
    11
 # iter =  9250  time[fs]= 9.25000
   N -0.802608432E+00 -0.135998583E+01  0.250625274E+01
   N  0.832513181E+00 -0.133977850E+01  0.249937954E+01
   C -0.664873758E+00  0.137167014E+01  0.250292418E+01
   C -0.968849927E+02 -0.189456843E+03 -0.286289781E+03
   C -0.148687213E+01 -0.113586142E-01  0.250121360E+01
   C  0.138564377E+01  0.397570282E-01  0.250189899E+01
   H -0.202832326E+01  0.354015269E+01  0.249702925E+01
   H  0.206263539E+01  0.341798231E+01  0.285901468E+01
   H -0.391738713E+01 -0.263945247E+00  0.249916378E+01
   H  0.425719258E+01 -0.243673677E+00  0.251186897E+01
  Xx  0.763638370E+02  0.149121588E+03 -0.161065817E+03
    11
 # iter =  9500  time[fs]= 9.50000
   N -0.808933433E+00 -0.136790195E+01  0.250640384E+01
   N  0.840076961E+00 -0.134557445E+01  0.249933184E+01
   C -0.664511047E+00  0.137707433E+01  0.250307793E+01
   C -0.996339084E+02 -0.194829353E+03 -0.294425406E+03
   C -0.149383684E+01 -0.118582333E-01  0.250120337E+01
   C  0.138835882E+01  0.398319526E-01  0.250189739E+01
   H -0.205998086E+01  0.359836611E+01  0.249642696E+01
   H  0.209940331E+01  0.347682596E+01  0.287130989E+01
   H -0.398144103E+01 -0.272993958E+00  0.249884399E+01
   H  0.433816468E+01 -0.251829438E+00  0.251193577E+01
  Xx  0.784956832E+02  0.153287493E+03 -0.165673756E+03
    11
 # iter =  9750  time[fs]= 9.75000
   N -0.815219995E+00 -0.137569883E+01  0.250657524E+01
   N  0.847765755E+00 -0.135132752E+01  0.249928977E+01
   C -0.664184651E+00  0.138246826E+01  0.250318797E+01
   C -0.102382824E+03 -0.200201862E+03 -0.302561032E+03
   C -0.150094934E+01 -0.124381457E-01  0.250117114E+01
   C  0.139102520E+01  0.397992853E-01  0.250186141E+01
   H -0.209215314E+01  0.365734646E+01  0.249581281E+01
   H  0.213673978E+01  0.353652175E+01  0.288369971E+01
   H -0.404625699E+01 -0.282243346E+00  0.249853473E+01
   H  0.442024170E+01 -0.260258823E+00  0.251200064E+01
  Xx  0.806275294E+02  0.157453398E+03 -0.170281696E+03
    11
 # iter = 10000  time[fs]=10.00000
   N -0.821496872E+00 -0.138341947E+01  0.250675640E+01
   N  0.855504877E+00 -0.135702544E+01  0.249921209E+01
   C -0.663881324E+00  0.138783088E+01  0.250334203E+01
   C -0.105131740E+03 -0.205574371E+03 -0.310696657E+03
   C -0.150805965E+01 -0.130582278E-01  0.250112355E+01
   C  0.139370567E+01  0.396656226E-01  0.250186529E+01
   H -0.212482921E+01  0.371709466E+01  0.249516315E+01
   H  0.217452658E+01  0.359703446E+01  0.289623750E+01
   H -0.411213801E+01 -0.291758175E+00  0.249823819E+01
   H  0.450334921E+01 -0.268930908E+00  0.251206569E+01
  Xx  0.827593755E+02  0.161619303E+03 -0.174889636E+03