    11
 # iter =     0  time[fs]= 0.00000
   N -0.668466338E+00 -0.116463086E+01  0.250000000E+01
   N  0.668466338E+00 -0.116463086E+01  0.250000000E+01
   C -0.692277627E+00  0.124916000E+01  0.250000000E+01
   C  0.692277627E+00  0.124916000E+01  0.250000000E+01
   C -0.132315667E+01  0.433975300E-03  0.250000000E+01
   C  0.132315667E+01  0.433975300E-03  0.250000000E+01
   H -0.127180384E+01  0.216832769E+01  0.250000000E+01
   H  0.127180384E+01  0.216832769E+01  0.250000000E+01
   H -0.240769469E+01 -0.832907948E-01  0.250000000E+01
   H  0.240769469E+01 -0.832907948E-01  0.250000000E+01
  Xx  0.000000000E+00  0.124916000E+01  0.200000000E+02
    11
 # iter =   250  time[fs]= 0.25000
   N -0.668478862E+00 -0.116465145E+01  0.249999758E+01
   N  0.668478862E+00 -0.116465145E+01  0.249999758E+01
   C -0.692272412E+00  0.124913877E+01  0.249999619E+01
   C  0.692272412E+00  0.124913877E+01  0.249999619E+01
   C -0.132312991E+01  0.427592921E-03  0.249999634E+01
   C  0.132312991E+01  0.427592921E-03  0.249999634E+01
   H -0.127181205E+01  0.216833109E+01  0.249996915E+01
   H  0.127181205E+01  0.216833109E+01  0.249996915E+01
   H -0.240778686E+01 -0.832990590E-01  0.249997218E+01
   H  0.240778686E+01 -0.832990590E-01  0.249997218E+01
  Xx -0.183475047E-19  0.124917315E+01  0.835703969E+01
    11
 # iter =   500  time[fs]= 0.50000
   N -0.668519246E+00 -0.116478911E+01  0.250001483E+01
   N  0.668519246E+00 -0.116478911E+01  0.250001483E+01
   C -0.693699322E+00  0.124911229E+01  0.249991165E+01
   C  0.693699322E+00  0.124911229E+01  0.249991165E+01
   C -0.132320623E+01  0.206816530E-03  0.249999868E+01
   C  0.132320623E+01  0.206816530E-03  0.249999868E+01
   H -0.127293633E+01  0.216960482E+01  0.249998162E+01
   H  0.127293633E+01  0.216960482E+01  0.249998162E+01
   H -0.240869678E+01 -0.834171043E-01  0.249996525E+01
   H  0.240869678E+01 -0.834171043E-01  0.249996525E+01
  Xx  0.150398724E-18  0.125012724E+01 -0.328404157E+01
    11
 # iter =   750  time[fs]= 0.75000
   N -0.668747736E+00 -0.116532040E+01  0.250005932E+01
   N  0.668747736E+00 -0.116532040E+01  0.250005932E+01
   C -0.696713841E+00  0.124945575E+01  0.249987499E+01
   C  0.696713841E+00  0.124945575E+01  0.249987499E+01
   C -0.132376231E+01 -0.419074804E-03  0.249997016E+01
   C  0.132376231E+01 -0.419074804E-03  0.249997016E+01
   H -0.127848597E+01  0.217681563E+01  0.250036700E+01
   H  0.127848597E+01  0.217681563E+01  0.250036700E+01
   H -0.241339014E+01 -0.841520715E-01  0.250006225E+01
   H  0.241339014E+01 -0.841520715E-01  0.250006225E+01
  Xx  0.356990399E-18  0.125211019E+01 -0.149254128E+02
    11
 # iter =  1000  time[fs]= 1.00000
   N -0.669322283E+00 -0.116658089E+01  0.250006740E+01
   N  0.669322283E+00 -0.116658089E+01  0.250006740E+01
   C -0.699956253E+00  0.125006066E+01  0.249986332E+01
   C  0.699956253E+00  0.125006066E+01  0.249986332E+01
   C -0.132491831E+01 -0.886211227E-03  0.249998060E+01
   C  0.132491831E+01 -0.886211227E-03  0.249998060E+01
   H -0.128765625E+01  0.218899895E+01  0.250054501E+01
   H  0.128765625E+01  0.218899895E+01  0.250054501E+01
   H -0.242266780E+01 -0.855067603E-01  0.250002552E+01
   H  0.242266780E+01 -0.855067603E-01  0.250002552E+01
  Xx  0.544591097E-18  0.125412832E+01 -0.265669486E+02
    11
 # iter =  1250  time[fs]= 1.25000
   N -0.670339543E+00 -0.116856328E+01  0.250011344E+01
   N  0.670339543E+00 -0.116856328E+01  0.250011344E+01
   C -0.703235145E+00  0.125106775E+01  0.249988594E+01
   C  0.703235145E+00  0.125106775E+01  0.249988594E+01
   C -0.132667100E+01 -0.142695075E-02  0.249995175E+01
   C  0.132667100E+01 -0.142695075E-02  0.249995175E+01
   H -0.129986553E+01  0.220613723E+01  0.250044552E+01
   H  0.129986553E+01  0.220613723E+01  0.250044552E+01
   H -0.243650676E+01 -0.872496310E-01  0.250013954E+01
   H  0.243650676E+01 -0.872496310E-01  0.250013954E+01
  Xx  0.731585212E-18  0.125614948E+01 -0.382085573E+02
    11
 # iter =  1500  time[fs]= 1.50000
   N -0.671882565E+00 -0.117116508E+01  0.250011880E+01
   N  0.671882565E+00 -0.117116508E+01  0.250011880E+01
   C -0.706585807E+00  0.125251913E+01  0.249992591E+01
   C  0.706585807E+00  0.125251913E+01  0.249992591E+01
   C -0.132902144E+01 -0.215942262E-02  0.249994726E+01
   C  0.132902144E+01 -0.215942262E-02  0.249994726E+01
   H -0.131496132E+01  0.222804477E+01  0.250027730E+01
   H  0.131496132E+01  0.222804477E+01  0.250027730E+01
   H -0.245430943E+01 -0.893688351E-01  0.250035485E+01
   H  0.245430943E+01 -0.893688351E-01  0.250035485E+01
  Xx  0.918553061E-18  0.125817168E+01 -0.498502035E+02
    11
 # iter =  1750  time[fs]= 1.75000
   N -0.673816281E+00 -0.117435378E+01  0.250012611E+01
   N  0.673816281E+00 -0.117435378E+01  0.250012611E+01
   C -0.710168334E+00  0.125436282E+01  0.249995810E+01
   C  0.710168334E+00  0.125436282E+01  0.249995810E+01
   C -0.133195235E+01 -0.305317474E-02  0.249994463E+01
   C  0.133195235E+01 -0.305317474E-02  0.249994463E+01
   H -0.133313472E+01  0.225474768E+01  0.249987377E+01
   H  0.133313472E+01  0.225474768E+01  0.249987377E+01
   H -0.247563841E+01 -0.919644881E-01  0.250064181E+01
   H  0.247563841E+01 -0.919644881E-01  0.250064181E+01
  Xx  0.110563698E-17  0.126019444E+01 -0.614918703E+02
    11
 # iter =  2000  time[fs]= 2.00000
   N -0.675755415E+00 -0.117816271E+01  0.250011811E+01
   N  0.675755415E+00 -0.117816271E+01  0.250011811E+01
   C -0.714255950E+00  0.125652425E+01  0.249998594E+01
   C  0.714255950E+00  0.125652425E+01  0.249998594E+01
   C -0.133548193E+01 -0.415520720E-02  0.249992598E+01
   C  0.133548193E+01 -0.415520720E-02  0.249992598E+01
   H -0.135450656E+01  0.228637653E+01  0.249956807E+01
   H  0.135450656E+01  0.228637653E+01  0.249956807E+01
   H -0.250002972E+01 -0.945678674E-01  0.250129060E+01
   H  0.250002972E+01 -0.945678674E-01  0.250129060E+01
  Xx  0.129258899E-17  0.126221735E+01 -0.731335493E+02
    11
 # iter =  2250  time[fs]= 2.25000
   N -0.678046260E+00 -0.118263585E+01  0.250011189E+01
   N  0.678046260E+00 -0.118263585E+01  0.250011189E+01
   C -0.718560791E+00  0.125906366E+01  0.250002219E+01
   C  0.718560791E+00  0.125906366E+01  0.250002219E+01
   C -0.133957983E+01 -0.521208512E-02  0.249992973E+01
   C  0.133957983E+01 -0.521208512E-02  0.249992973E+01
   H -0.137816236E+01  0.232160996E+01  0.249933583E+01
   H  0.137816236E+01  0.232160996E+01  0.249933583E+01
   H -0.252796073E+01 -0.976692431E-01  0.250184515E+01
   H  0.252796073E+01 -0.976692431E-01  0.250184515E+01
  Xx  0.147944052E-17  0.126424027E+01 -0.847752288E+02
    11
 # iter =  2500  time[fs]= 2.50000
   N -0.680904013E+00 -0.118773772E+01  0.250008691E+01
   N  0.680904013E+00 -0.118773772E+01  0.250008691E+01
   C -0.722921521E+00  0.126213375E+01  0.250005706E+01
   C  0.722921521E+00  0.126213375E+01  0.250005706E+01
   C -0.134421790E+01 -0.630117208E-02  0.249996309E+01
   C  0.134421790E+01 -0.630117208E-02  0.249996309E+01
   H -0.140350313E+01  0.235925809E+01  0.249880261E+01
   H  0.140350313E+01  0.235925809E+01  0.249880261E+01
   H -0.255924317E+01 -0.101420947E+00  0.250227785E+01
   H  0.255924317E+01 -0.101420947E+00  0.250227785E+01
  Xx  0.166631240E-17  0.126626318E+01 -0.964169083E+02
    11
 # iter =  2750  time[fs]= 2.75000
   N -0.684166805E+00 -0.119340968E+01  0.250008839E+01
   N  0.684166805E+00 -0.119340968E+01  0.250008839E+01
   C -0.727622400E+00  0.126578112E+01  0.250008899E+01
   C  0.727622400E+00  0.126578112E+01  0.250008899E+01
   C -0.134940992E+01 -0.755608217E-02  0.249993919E+01
   C  0.134940992E+01 -0.755608217E-02  0.249993919E+01
   H -0.143026431E+01  0.239883209E+01  0.249841297E+01
   H  0.143026431E+01  0.239883209E+01  0.249841297E+01
   H -0.259318687E+01 -0.105683907E+00  0.250292173E+01
   H  0.259318687E+01 -0.105683907E+00  0.250292173E+01
  Xx  0.185316958E-17  0.126828610E+01 -0.108058588E+03
    11
 # iter =  3000  time[fs]= 3.00000
   N -0.687675895E+00 -0.119968974E+01  0.250010556E+01
   N  0.687675895E+00 -0.119968974E+01  0.250010556E+01
   C -0.732647817E+00  0.126998202E+01  0.250014992E+01
   C  0.732647817E+00  0.126998202E+01  0.250014992E+01
   C -0.135515594E+01 -0.879230317E-02  0.249987051E+01
   C  0.135515594E+01 -0.879230317E-02  0.249987051E+01
   H -0.145799574E+01  0.243995369E+01  0.249804375E+01
   H  0.145799574E+01  0.243995369E+01  0.249804375E+01
   H -0.262985355E+01 -0.110391439E+00  0.250382700E+01
   H  0.262985355E+01 -0.110391439E+00  0.250382700E+01
  Xx  0.204003345E-17  0.127030901E+01 -0.119700267E+03
    11
 # iter =  3250  time[fs]= 3.25000
   N -0.691417964E+00 -0.120654089E+01  0.250012358E+01
   N  0.691417964E+00 -0.120654089E+01  0.250012358E+01
   C -0.738056666E+00  0.127467834E+01  0.250021930E+01
   C  0.738056666E+00  0.127467834E+01  0.250021930E+01
   C -0.136149097E+01 -0.101093615E-01  0.249981558E+01
   C  0.136149097E+01 -0.101093615E-01  0.249981558E+01
   H -0.148666146E+01  0.248256811E+01  0.249744635E+01
   H  0.148666146E+01  0.248256811E+01  0.249744635E+01
   H -0.266902658E+01 -0.115277684E+00  0.250460375E+01
   H  0.266902658E+01 -0.115277684E+00  0.250460375E+01
  Xx  0.222691878E-17  0.127233193E+01 -0.131341947E+03
    11
 # iter =  3500  time[fs]= 3.50000
   N -0.695691681E+00 -0.121397504E+01  0.250014363E+01
   N  0.695691681E+00 -0.121397504E+01  0.250014363E+01
   C -0.743658357E+00  0.127983549E+01  0.250031045E+01
   C  0.743658357E+00  0.127983549E+01  0.250031045E+01
   C -0.136831653E+01 -0.113888353E-01  0.249972794E+01
   C  0.136831653E+01 -0.113888353E-01  0.249972794E+01
   H -0.151628881E+01  0.252653618E+01  0.249697250E+01
   H  0.151628881E+01  0.252653618E+01  0.249697250E+01
   H -0.271011928E+01 -0.120560505E+00  0.250527320E+01
   H  0.271011928E+01 -0.120560505E+00  0.250527320E+01
  Xx  0.241380694E-17  0.127435484E+01 -0.142983626E+03
    11
 # iter =  3750  time[fs]= 3.75000
   N -0.700351085E+00 -0.122191748E+01  0.250014690E+01
   N  0.700351085E+00 -0.122191748E+01  0.250014690E+01
   C -0.749416231E+00  0.128548729E+01  0.250037637E+01
   C  0.749416231E+00  0.128548729E+01  0.250037637E+01
   C -0.137569862E+01 -0.127888895E-01  0.249966804E+01
   C  0.137569862E+01 -0.127888895E-01  0.249966804E+01
   H -0.154697207E+01  0.257226953E+01  0.249663453E+01
   H  0.154697207E+01  0.257226953E+01  0.249663453E+01
   H -0.275266052E+01 -0.126255024E+00  0.250605163E+01
   H  0.275266052E+01 -0.126255024E+00  0.250605163E+01
  Xx  0.260068093E-17  0.127637776E+01 -0.154625306E+03
    11
 # iter =  4000  time[fs]= 4.00000
   N -0.705230646E+00 -0.123032779E+01  0.250016654E+01
   N  0.705230646E+00 -0.123032779E+01  0.250016654E+01
   C -0.755512210E+00  0.129157023E+01  0.250045723E+01
   C  0.755512210E+00  0.129157023E+01  0.250045723E+01
   C -0.138364262E+01 -0.143449501E-01  0.249958176E+01
   C  0.138364262E+01 -0.143449501E-01  0.249958176E+01
   H -0.157882509E+01  0.261993074E+01  0.249622034E+01
   H  0.157882509E+01  0.261993074E+01  0.249622034E+01
   H -0.279674654E+01 -0.132178808E+00  0.250670039E+01
   H  0.279674654E+01 -0.132178808E+00  0.250670039E+01
  Xx  0.278752378E-17  0.127840067E+01 -0.166266985E+03
    11
 # iter =  4250  time[fs]= 4.25000
   N -0.710183757E+00 -0.123929780E+01  0.250022263E+01
   N  0.710183757E+00 -0.123929780E+01  0.250022263E+01
   C -0.761922300E+00  0.129816877E+01  0.250049412E+01
   C  0.761922300E+00  0.129816877E+01  0.250049412E+01
   C -0.139212458E+01 -0.159660012E-01  0.249951960E+01
   C  0.139212458E+01 -0.159660012E-01  0.249951960E+01
   H -0.161139016E+01  0.266895194E+01  0.249589517E+01
   H  0.161139016E+01  0.266895194E+01  0.249589517E+01
   H -0.284233010E+01 -0.138245948E+00  0.250741085E+01
   H  0.284233010E+01 -0.138245948E+00  0.250741085E+01
  Xx  0.297435405E-17  0.128042359E+01 -0.177908665E+03
    11
 # iter =  4500  time[fs]= 4.50000
   N -0.715554748E+00 -0.124871399E+01  0.250028832E+01
   N  0.715554748E+00 -0.124871399E+01  0.250028832E+01
   C -0.768492884E+00  0.130526581E+01  0.250056433E+01
   C  0.768492884E+00  0.130526581E+01  0.250056433E+01
   C -0.140113313E+01 -0.176386606E-01  0.249940899E+01
   C  0.140113313E+01 -0.176386606E-01  0.249940899E+01
   H -0.164454121E+01  0.271878522E+01  0.249569683E+01
   H  0.164454121E+01  0.271878522E+01  0.249569683E+01
   H -0.288904278E+01 -0.144718105E+00  0.250792056E+01
   H  0.288904278E+01 -0.144718105E+00  0.250792056E+01
  Xx  0.316116962E-17  0.128244650E+01 -0.189550344E+03
    11
 # iter =  4750  time[fs]= 4.75000
   N -0.721263659E+00 -0.125855247E+01  0.250038790E+01
   N  0.721263659E+00 -0.125855247E+01  0.250038790E+01
   C -0.775232228E+00  0.131285352E+01  0.250063604E+01
   C  0.775232228E+00  0.131285352E+01  0.250063604E+01
   C -0.141074388E+01 -0.193918165E-01  0.249926712E+01
   C  0.141074388E+01 -0.193918165E-01  0.249926712E+01
   H -0.167808020E+01  0.276929262E+01  0.249545772E+01
   H  0.167808020E+01  0.276929262E+01  0.249545772E+01
   H -0.293679379E+01 -0.151297553E+00  0.250835317E+01
   H  0.293679379E+01 -0.151297553E+00  0.250835317E+01
  Xx  0.334798190E-17  0.128446942E+01 -0.201192023E+03
    11
 # iter =  5000  time[fs]= 5.00000
   N -0.727335767E+00 -0.126875587E+01  0.250044125E+01
   N  0.727335767E+00 -0.126875587E+01  0.250044125E+01
   C -0.782190890E+00  0.132086301E+01  0.250070554E+01
   C  0.782190890E+00  0.132086301E+01  0.250070554E+01
   C -0.142075291E+01 -0.211032639E-01  0.249916643E+01
   C  0.142075291E+01 -0.211032639E-01  0.249916643E+01
   H -0.171179082E+01  0.282022346E+01  0.249524024E+01
   H  0.171179082E+01  0.282022346E+01  0.249524024E+01
   H -0.298598660E+01 -0.158227140E+00  0.250884635E+01
   H  0.298598660E+01 -0.158227140E+00  0.250884635E+01
  Xx  0.353478619E-17  0.128649233E+01 -0.212833703E+03
    11
 # iter =  5250  time[fs]= 5.25000
   N -0.733627518E+00 -0.127928454E+01  0.250049104E+01
   N  0.733627518E+00 -0.127928454E+01  0.250049104E+01
   C -0.789224157E+00  0.132931452E+01  0.250076534E+01
   C  0.789224157E+00  0.132931452E+01  0.250076534E+01
   C -0.143122265E+01 -0.228690624E-01  0.249907631E+01
   C  0.143122265E+01 -0.228690624E-01  0.249907631E+01
   H -0.174581952E+01  0.287154134E+01  0.249506552E+01
   H  0.174581952E+01  0.287154134E+01  0.249506552E+01
   H -0.303646893E+01 -0.165496090E+00  0.250946674E+01
   H  0.303646893E+01 -0.165496090E+00  0.250946674E+01
  Xx  0.372157454E-17  0.128851525E+01 -0.224475382E+03
    11
 # iter =  5500  time[fs]= 5.50000
   N -0.740091660E+00 -0.129012115E+01  0.250054010E+01
   N  0.740091660E+00 -0.129012115E+01  0.250054010E+01
   C -0.796366265E+00  0.133818157E+01  0.250083241E+01
   C  0.796366265E+00  0.133818157E+01  0.250083241E+01
   C -0.144216755E+01 -0.247586997E-01  0.249899019E+01
   C  0.144216755E+01 -0.247586997E-01  0.249899019E+01
   H -0.178025361E+01  0.292362589E+01  0.249489660E+01
   H  0.178025361E+01  0.292362589E+01  0.249489660E+01
   H -0.308793335E+01 -0.172904886E+00  0.251010162E+01
   H  0.308793335E+01 -0.172904886E+00  0.251010162E+01
  Xx  0.390835461E-17  0.129053816E+01 -0.236117062E+03
    11
 # iter =  5750  time[fs]= 5.75000
   N -0.746848053E+00 -0.130125978E+01  0.250062341E+01
   N  0.746848053E+00 -0.130125978E+01  0.250062341E+01
   C -0.803479483E+00  0.134734387E+01  0.250088019E+01
   C  0.803479483E+00  0.134734387E+01  0.250088019E+01
   C -0.145347165E+01 -0.265683293E-01  0.249887709E+01
   C  0.145347165E+01 -0.265683293E-01  0.249887709E+01
   H -0.181525637E+01  0.297651609E+01  0.249475976E+01
   H  0.181525637E+01  0.297651609E+01  0.249475976E+01
   H -0.314079384E+01 -0.180514528E+00  0.251071639E+01
   H  0.314079384E+01 -0.180514528E+00  0.251071639E+01
  Xx  0.409511535E-17  0.129256108E+01 -0.247758741E+03
    11
 # iter =  6000  time[fs]= 6.00000
   N -0.754003836E+00 -0.131260883E+01  0.250070694E+01
   N  0.754003836E+00 -0.131260883E+01  0.250070694E+01
   C -0.810651258E+00  0.135681392E+01  0.250095192E+01
   C  0.810651258E+00  0.135681392E+01  0.250095192E+01
   C -0.146512600E+01 -0.283732999E-01  0.249873317E+01
   C  0.146512600E+01 -0.283732999E-01  0.249873317E+01
   H -0.185061663E+01  0.303019702E+01  0.249453571E+01
   H  0.185061663E+01  0.303019702E+01  0.249453571E+01
   H -0.319474743E+01 -0.188343405E+00  0.251133034E+01
   H  0.319474743E+01 -0.188343405E+00  0.251133034E+01
  Xx  0.428187598E-17  0.129458399E+01 -0.259400421E+03
    11
 # iter =  6250  time[fs]= 6.25000
   N -0.761262917E+00 -0.132424055E+01  0.250077595E+01
   N  0.761262917E+00 -0.132424055E+01  0.250077595E+01
   C -0.817897052E+00  0.136651595E+01  0.250102626E+01
   C  0.817897052E+00  0.136651595E+01  0.250102626E+01
   C -0.147714289E+01 -0.301075245E-01  0.249859618E+01
   C  0.147714289E+01 -0.301075245E-01  0.249859618E+01
   H -0.188660394E+01  0.308461827E+01  0.249437781E+01
   H  0.188660394E+01  0.308461827E+01  0.249437781E+01
   H -0.324950792E+01 -0.196439428E+00  0.251196532E+01
   H  0.324950792E+01 -0.196439428E+00  0.251196532E+01
  Xx  0.446862981E-17  0.129660691E+01 -0.271042100E+03
    11
 # iter =  6500  time[fs]= 6.50000
   N -0.768653563E+00 -0.133609658E+01  0.250083682E+01
   N  0.768653563E+00 -0.133609658E+01  0.250083682E+01
   C -0.825189481E+00  0.137656236E+01  0.250106166E+01
   C  0.825189481E+00  0.137656236E+01  0.250106166E+01
   C -0.148949537E+01 -0.318648146E-01  0.249851246E+01
   C  0.148949537E+01 -0.318648146E-01  0.249851246E+01
   H -0.192301524E+01  0.313971969E+01  0.249420994E+01
   H  0.192301524E+01  0.313971969E+01  0.249420994E+01
   H -0.330520390E+01 -0.204773332E+00  0.251264058E+01
   H  0.330520390E+01 -0.204773332E+00  0.251264058E+01
  Xx  0.465538800E-17  0.129862982E+01 -0.282683780E+03
    11
 # iter =  6750  time[fs]= 6.75000
   N -0.776087175E+00 -0.134821957E+01  0.250091050E+01
   N  0.776087175E+00 -0.134821957E+01  0.250091050E+01
   C -0.832533236E+00  0.138681915E+01  0.250115512E+01
   C  0.832533236E+00  0.138681915E+01  0.250115512E+01
   C -0.150219334E+01 -0.335125966E-01  0.249836443E+01
   C  0.150219334E+01 -0.335125966E-01  0.249836443E+01
   H -0.195991393E+01  0.319562782E+01  0.249403535E+01
   H  0.195991393E+01  0.319562782E+01  0.249403535E+01
   H -0.336195116E+01 -0.213304276E+00  0.251340360E+01
   H  0.336195116E+01 -0.213304276E+00  0.251340360E+01
  Xx  0.484214961E-17  0.130065274E+01 -0.294325459E+03
    11
 # iter =  7000  time[fs]= 7.00000
   N -0.783691861E+00 -0.136055912E+01  0.250098923E+01
   N  0.783691861E+00 -0.136055912E+01  0.250098923E+01
   C -0.839901229E+00  0.139727114E+01  0.250122776E+01
   C  0.839901229E+00  0.139727114E+01  0.250122776E+01
   C -0.151511877E+01 -0.350733836E-01  0.249822059E+01
   C  0.151511877E+01 -0.350733836E-01  0.249822059E+01
   H -0.199725707E+01  0.325225071E+01  0.249376799E+01
   H  0.199725707E+01  0.325225071E+01  0.249376799E+01
   H -0.341996169E+01 -0.222149762E+00  0.251406052E+01
   H  0.341996169E+01 -0.222149762E+00  0.251406052E+01
  Xx  0.502890700E-17  0.130267565E+01 -0.305967139E+03
    11
 # iter =  7250  time[fs]= 7.25000
   N -0.791435744E+00 -0.137310853E+01  0.250104326E+01
   N  0.791435744E+00 -0.137310853E+01  0.250104326E+01
   C -0.847419450E+00  0.140795252E+01  0.250131257E+01
   C  0.847419450E+00  0.140795252E+01  0.250131257E+01
   C -0.152831227E+01 -0.366609531E-01  0.249810548E+01
   C  0.152831227E+01 -0.366609531E-01  0.249810548E+01
   H -0.203505732E+01  0.330967915E+01  0.249346207E+01
   H  0.203505732E+01  0.330967915E+01  0.249346207E+01
   H -0.347902842E+01 -0.231210257E+00  0.251468070E+01
   H  0.347902842E+01 -0.231210257E+00  0.251468070E+01
  Xx  0.521566170E-17  0.130469857E+01 -0.317608818E+03
    11
 # iter =  7500  time[fs]= 7.50000
   N -0.799297021E+00 -0.138580762E+01  0.250111313E+01
   N  0.799297021E+00 -0.138580762E+01  0.250111313E+01
   C -0.854967587E+00  0.141892315E+01  0.250140001E+01
   C  0.854967587E+00  0.141892315E+01  0.250140001E+01
   C -0.154164840E+01 -0.383450890E-01  0.249795925E+01
   C  0.154164840E+01 -0.383450890E-01  0.249795925E+01
   H -0.207327909E+01  0.336776515E+01  0.249318834E+01
   H  0.207327909E+01  0.336776515E+01  0.249318834E+01
   H -0.353936015E+01 -0.240595391E+00  0.251530328E+01
   H  0.353936015E+01 -0.240595391E+00  0.251530328E+01
  Xx  0.540241281E-17  0.130672148E+01 -0.329250498E+03
    11
 # iter =  7750  time[fs]= 7.75000
   N -0.807169991E+00 -0.139871837E+01  0.250116530E+01
   N  0.807169991E+00 -0.139871837E+01  0.250116530E+01
   C -0.862600934E+00  0.143011500E+01  0.250146185E+01
   C  0.862600934E+00  0.143011500E+01  0.250146185E+01
   C -0.155523909E+01 -0.401055429E-01  0.249786024E+01
   C  0.155523909E+01 -0.401055429E-01  0.249786024E+01
   H -0.211199661E+01  0.342669638E+01  0.249289447E+01
   H  0.211199661E+01  0.342669638E+01  0.249289447E+01
   H -0.360057064E+01 -0.250256768E+00  0.251591230E+01
   H  0.360057064E+01 -0.250256768E+00  0.251591230E+01
  Xx  0.558916298E-17  0.130874440E+01 -0.340892177E+03
    11
 # iter =  8000  time[fs]= 8.00000
   N -0.814956701E+00 -0.141192999E+01  0.250120975E+01
   N  0.814956701E+00 -0.141192999E+01  0.250120975E+01
   C -0.870340897E+00  0.144142387E+01  0.250153381E+01
   C  0.870340897E+00  0.144142387E+01  0.250153381E+01
   C -0.156906648E+01 -0.417139179E-01  0.249776139E+01
   C  0.156906648E+01 -0.417139179E-01  0.249776139E+01
   H -0.215128857E+01  0.348653773E+01  0.249264975E+01
   H  0.215128857E+01  0.348653773E+01  0.249264975E+01
   H -0.366260149E+01 -0.260085069E+00  0.251651753E+01
   H  0.366260149E+01 -0.260085069E+00  0.251651753E+01
  Xx  0.577591084E-17  0.131076731E+01 -0.352533856E+03
    11
 # iter =  8250  time[fs]= 8.25000
   N -0.822876164E+00 -0.142538936E+01  0.250125418E+01
   N  0.822876164E+00 -0.142538936E+01  0.250125418E+01
   C -0.878072363E+00  0.145288140E+01  0.250162499E+01
   C  0.878072363E+00  0.145288140E+01  0.250162499E+01
   C -0.158306402E+01 -0.433397695E-01  0.249764299E+01
   C  0.158306402E+01 -0.433397695E-01  0.249764299E+01
   H -0.219114019E+01  0.354731368E+01  0.249243470E+01
   H  0.219114019E+01  0.354731368E+01  0.249243470E+01
   H -0.372555631E+01 -0.270181786E+00  0.251709365E+01
   H  0.372555631E+01 -0.270181786E+00  0.251709365E+01
  Xx  0.596265259E-17  0.131279023E+01 -0.364175536E+03
    11
 # iter =  8500  time[fs]= 8.50000
   N -0.830847246E+00 -0.143905741E+01  0.250131410E+01
   N  0.830847246E+00 -0.143905741E+01  0.250131410E+01
   C -0.885867161E+00  0.146452125E+01  0.250170408E+01
   C  0.885867161E+00  0.146452125E+01  0.250170408E+01
   C -0.159719440E+01 -0.449934666E-01  0.249751534E+01
   C  0.159719440E+01 -0.449934666E-01  0.249751534E+01
   H -0.223146011E+01  0.360890750E+01  0.249222725E+01
   H  0.223146011E+01  0.360890750E+01  0.249222725E+01
   H -0.378949373E+01 -0.280563816E+00  0.251770528E+01
   H  0.378949373E+01 -0.280563816E+00  0.251770528E+01
  Xx  0.614939529E-17  0.131481314E+01 -0.375817215E+03
    11
 # iter =  8750  time[fs]= 8.75000
   N -0.838862021E+00 -0.145291721E+01  0.250138246E+01
   N  0.838862021E+00 -0.145291721E+01  0.250138246E+01
   C -0.893659843E+00  0.147635057E+01  0.250174438E+01
   C  0.893659843E+00  0.147635057E+01  0.250174438E+01
   C -0.161145592E+01 -0.467062925E-01  0.249739972E+01
   C  0.161145592E+01 -0.467062925E-01  0.249739972E+01
   H -0.227236423E+01  0.367135588E+01  0.249205784E+01
   H  0.227236423E+01  0.367135588E+01  0.249205784E+01
   H -0.385438551E+01 -0.291186091E+00  0.251830236E+01
   H  0.385438551E+01 -0.291186091E+00  0.251830236E+01
  Xx  0.633614547E-17  0.131683606E+01 -0.387458895E+03
    11
 # iter =  9000  time[fs]= 9.00000
   N -0.846855313E+00 -0.146693717E+01  0.250144289E+01
   N  0.846855313E+00 -0.146693717E+01  0.250144289E+01
   C -0.901625167E+00  0.148817777E+01  0.250182996E+01
   C  0.901625167E+00  0.148817777E+01  0.250182996E+01
   C -0.162589115E+01 -0.484108608E-01  0.249726678E+01
   C  0.162589115E+01 -0.484108608E-01  0.249726678E+01
   H -0.231393608E+01  0.373485960E+01  0.249190470E+01
   H  0.231393608E+01  0.373485960E+01  0.249190470E+01
   H -0.392007704E+01 -0.302070658E+00  0.251887955E+01
   H  0.392007704E+01 -0.302070658E+00  0.251887955E+01
  Xx  0.652289667E-17  0.131885897E+01 -0.399100574E+03
    11
 # iter =  9250  time[fs]= 9.25000
   N -0.854751818E+00 -0.148111810E+01  0.250152967E+01
   N  0.854751818E+00 -0.148111810E+01  0.250152967E+01
   C -0.909659227E+00  0.150014191E+01  0.250189119E+01
   C  0.909659227E+00  0.150014191E+01  0.250189119E+01
   C -0.164050281E+01 -0.501569769E-01  0.249711699E+01
   C  0.164050281E+01 -0.501569769E-01  0.249711699E+01
   H -0.235615925E+01  0.379921931E+01  0.249172780E+01
   H  0.235615925E+01  0.379921931E+01  0.249172780E+01
   H -0.398657227E+01 -0.313229108E+00  0.251940867E+01
   H  0.398657227E+01 -0.313229108E+00  0.251940867E+01
  Xx  0.670964930E-17  0.132088189E+01 -0.410742254E+03
    11
 # iter =  9500  time[fs]= 9.50000
   N -0.862725975E+00 -0.149548341E+01  0.250157223E+01
   N  0.862725975E+00 -0.149548341E+01  0.250157223E+01
   C -0.917725725E+00  0.151215587E+01  0.250192479E+01
   C  0.917725725E+00  0.151215587E+01  0.250192479E+01
   C -0.165523653E+01 -0.518004472E-01  0.249704422E+01
   C  0.165523653E+01 -0.518004472E-01  0.249704422E+01
   H -0.239896021E+01  0.386442101E+01  0.249152178E+01
   H  0.239896021E+01  0.386442101E+01  0.249152178E+01
   H -0.405397308E+01 -0.324621176E+00  0.251991207E+01
   H  0.405397308E+01 -0.324621176E+00  0.251991207E+01
  Xx  0.689640461E-17  0.132290480E+01 -0.422383933E+03
    11
 # iter =  9750  time[fs]= 9.75000
   N -0.870769889E+00 -0.150995980E+01  0.250160047E+01
   N  0.870769889E+00 -0.150995980E+01  0.250160047E+01
   C -0.925808853E+00  0.152427193E+01  0.250196943E+01
   C  0.925808853E+00  0.152427193E+01  0.250196943E+01
   C -0.167002485E+01 -0.534707097E-01  0.249697842E+01
   C  0.167002485E+01 -0.534707097E-01  0.249697842E+01
   H -0.244232352E+01  0.393041104E+01  0.249134078E+01
   H  0.244232352E+01  0.393041104E+01  0.249134078E+01
   H -0.412250389E+01 -0.336327228E+00  0.252042072E+01
   H  0.412250389E+01 -0.336327228E+00  0.252042072E+01
  Xx  0.708315567E-17  0.132492772E+01 -0.434025613E+03
    11
 # iter = 10000  time[fs]=10.00000
   N -0.878903294E+00 -0.152446693E+01  0.250163078E+01
   N  0.878903294E+00 -0.152446693E+01  0.250163078E+01
   C -0.933969484E+00  0.153648855E+01  0.250201065E+01
   C  0.933969484E+00  0.153648855E+01  0.250201065E+01
   C -0.168487360E+01 -0.552937181E-01  0.249689979E+01
   C  0.168487360E+01 -0.552937181E-01  0.249689979E+01
   H -0.248624608E+01  0.399731338E+01  0.249113930E+01
   H  0.248624608E+01  0.399731338E+01  0.249113930E+01
   H -0.419205504E+01 -0.348265443E+00  0.252090830E+01
   H  0.419205504E+01 -0.348265443E+00  0.252090830E+01
  Xx  0.726990709E-17  0.132695063E+01 -0.445667292E+03
    11
 # iter = 10250  time[fs]=10.25000
   N -0.887094987E+00 -0.153895303E+01  0.250166678E+01
   N  0.887094987E+00 -0.153895303E+01  0.250166678E+01
   C -0.942280876E+00  0.154874915E+01  0.250202746E+01
   C  0.942280876E+00  0.154874915E+01  0.250202746E+01
   C -0.169982879E+01 -0.571857990E-01  0.249683776E+01
   C  0.169982879E+01 -0.571857990E-01  0.249683776E+01
   H -0.253070448E+01  0.406504288E+01  0.249092325E+01
   H  0.253070448E+01  0.406504288E+01  0.249092325E+01
   H -0.426243152E+01 -0.360463728E+00  0.252140722E+01
   H  0.426243152E+01 -0.360463728E+00  0.252140722E+01
  Xx  0.745666569E-17  0.132897355E+01 -0.457308972E+03
    11
 # iter = 10500  time[fs]=10.50000
   N -0.895268620E+00 -0.155347900E+01  0.250167917E+01
   N  0.895268620E+00 -0.155347900E+01  0.250167917E+01
   C -0.950629465E+00  0.156105567E+01  0.250206594E+01
   C  0.950629465E+00  0.156105567E+01  0.250206594E+01
   C -0.171489027E+01 -0.590728817E-01  0.249677394E+01
   C  0.171489027E+01 -0.590728817E-01  0.249677394E+01
   H -0.257567485E+01  0.413360406E+01  0.249072280E+01
   H  0.257567485E+01  0.413360406E+01  0.249072280E+01
   H -0.433362640E+01 -0.372927700E+00  0.252189565E+01
   H  0.433362640E+01 -0.372927700E+00  0.252189565E+01
  Xx  0.764342552E-17  0.133099646E+01 -0.468950651E+03
    11
 # iter = 10750  time[fs]=10.75000
   N -0.903576886E+00 -0.156802251E+01  0.250171700E+01
   N  0.903576886E+00 -0.156802251E+01  0.250171700E+01
   C -0.958934616E+00  0.157334021E+01  0.250212129E+01
   C  0.958934616E+00  0.157334021E+01  0.250212129E+01
   C -0.173002907E+01 -0.609127707E-01  0.249667512E+01
   C  0.173002907E+01 -0.609127707E-01  0.249667512E+01
   H -0.262120995E+01  0.420300287E+01  0.249049901E+01
   H  0.262120995E+01  0.420300287E+01  0.249049901E+01
   H -0.440567031E+01 -0.385595080E+00  0.252239164E+01
   H  0.440567031E+01 -0.385595080E+00  0.252239164E+01
  Xx  0.783018910E-17  0.133301938E+01 -0.480592331E+03
    11
 # iter = 11000  time[fs]=11.00000
   N -0.911972818E+00 -0.158259616E+01  0.250175633E+01
   N  0.911972818E+00 -0.158259616E+01  0.250175633E+01
   C -0.967201762E+00  0.158563979E+01  0.250219331E+01
   C  0.967201762E+00  0.158563979E+01  0.250219331E+01
   C -0.174519781E+01 -0.626878119E-01  0.249655774E+01
   C  0.174519781E+01 -0.626878119E-01  0.249655774E+01
   H -0.266725533E+01  0.427315736E+01  0.249028036E+01
   H  0.266725533E+01  0.427315736E+01  0.249028036E+01
   H -0.447870670E+01 -0.398551148E+00  0.252291052E+01
   H  0.447870670E+01 -0.398551148E+00  0.252291052E+01
  Xx  0.801695720E-17  0.133504229E+01 -0.492234010E+03
    11
 # iter = 11250  time[fs]=11.25000
   N -0.920451945E+00 -0.159718068E+01  0.250177153E+01
   N  0.920451945E+00 -0.159718068E+01  0.250177153E+01
   C -0.975488630E+00  0.159791994E+01  0.250222612E+01
   C  0.975488630E+00  0.159791994E+01  0.250222612E+01
   C -0.176040112E+01 -0.644610676E-01  0.249650819E+01
   C  0.176040112E+01 -0.644610676E-01  0.249650819E+01
   H -0.271382934E+01  0.434411442E+01  0.249008170E+01
   H  0.271382934E+01  0.434411442E+01  0.249008170E+01
   H -0.455271313E+01 -0.411772129E+00  0.252343129E+01
   H  0.455271313E+01 -0.411772129E+00  0.252343129E+01
  Xx  0.820372997E-17  0.133706521E+01 -0.503875689E+03
    11
 # iter = 11500  time[fs]=11.50000
   N -0.928984049E+00 -0.161172805E+01  0.250179673E+01
   N  0.928984049E+00 -0.161172805E+01  0.250179673E+01
   C -0.983745413E+00  0.161023025E+01  0.250225358E+01
   C  0.983745413E+00  0.161023025E+01  0.250225358E+01
   C -0.177571046E+01 -0.662763974E-01  0.249642875E+01
   C  0.177571046E+01 -0.662763974E-01  0.249642875E+01
   H -0.276089219E+01  0.441580683E+01  0.248986351E+01
   H  0.276089219E+01  0.441580683E+01  0.248986351E+01
   H -0.462758484E+01 -0.425226217E+00  0.252394170E+01
   H  0.462758484E+01 -0.425226217E+00  0.252394170E+01
  Xx  0.839049929E-17  0.133908812E+01 -0.515517369E+03
    11
 # iter = 11750  time[fs]=11.75000
   N -0.937612851E+00 -0.162626393E+01  0.250183181E+01
   N  0.937612851E+00 -0.162626393E+01  0.250183181E+01
   C -0.991909932E+00  0.162255202E+01  0.250230346E+01
   C  0.991909932E+00  0.162255202E+01  0.250230346E+01
   C -0.179109384E+01 -0.681320283E-01  0.249631085E+01
   C  0.179109384E+01 -0.681320283E-01  0.249631085E+01
   H -0.280847534E+01  0.448827558E+01  0.248963882E+01
   H  0.280847534E+01  0.448827558E+01  0.248963882E+01
   H -0.470323806E+01 -0.438976541E+00  0.252442649E+01
   H  0.470323806E+01 -0.438976541E+00  0.252442649E+01
  Xx  0.857726629E-17  0.134111104E+01 -0.527159048E+03
    11
 # iter = 12000  time[fs]=12.00000
   N -0.946451452E+00 -0.164077956E+01  0.250183906E+01
   N  0.946451452E+00 -0.164077956E+01  0.250183906E+01
   C -0.999985399E+00  0.163487180E+01  0.250236821E+01
   C  0.999985399E+00  0.163487180E+01  0.250236821E+01
   C -0.180645439E+01 -0.700763194E-01  0.249621747E+01
   C  0.180645439E+01 -0.700763194E-01  0.249621747E+01
   H -0.285657094E+01  0.456150144E+01  0.248941632E+01
   H  0.285657094E+01  0.456150144E+01  0.248941632E+01
   H -0.477971717E+01 -0.453002457E+00  0.252489753E+01
   H  0.477971717E+01 -0.453002457E+00  0.252489753E+01
  Xx  0.876402997E-17  0.134313395E+01 -0.538800728E+03
    11
 # iter = 12250  time[fs]=12.25000
   N -0.955547730E+00 -0.165527638E+01  0.250184468E+01
   N  0.955547730E+00 -0.165527638E+01  0.250184468E+01
   C -0.100793614E+01  0.164719395E+01  0.250238753E+01
   C  0.100793614E+01  0.164719395E+01  0.250238753E+01
   C -0.182179282E+01 -0.720922012E-01  0.249616340E+01
   C  0.182179282E+01 -0.720922012E-01  0.249616340E+01
   H -0.290512951E+01  0.463546290E+01  0.248917378E+01
   H  0.290512951E+01  0.463546290E+01  0.248917378E+01
   H -0.485704843E+01 -0.467245988E+00  0.252541046E+01
   H  0.485704843E+01 -0.467245988E+00  0.252541046E+01
  Xx  0.895079077E-17  0.134515687E+01 -0.550442407E+03
    11
 # iter = 12500  time[fs]=12.50000
   N -0.964809241E+00 -0.166980410E+01  0.250185188E+01
   N  0.964809241E+00 -0.166980410E+01  0.250185188E+01
   C -0.101576782E+01  0.165946481E+01  0.250241142E+01
   C  0.101576782E+01  0.165946481E+01  0.250241142E+01
   C -0.183720583E+01 -0.741093031E-01  0.249610153E+01
   C  0.183720583E+01 -0.741093031E-01  0.249610153E+01
   H -0.295413382E+01  0.471013457E+01  0.248892282E+01
   H  0.295413382E+01  0.471013457E+01  0.248892282E+01
   H -0.493526564E+01 -0.481685357E+00  0.252596188E+01
   H  0.493526564E+01 -0.481685357E+00  0.252596188E+01
  Xx  0.913754776E-17  0.134717978E+01 -0.562084087E+03
    11
 # iter = 12750  time[fs]=12.75000
   N -0.974165158E+00 -0.168440853E+01  0.250184851E+01
   N  0.974165158E+00 -0.168440853E+01  0.250184851E+01
   C -0.102349490E+01  0.167169506E+01  0.250243732E+01
   C  0.102349490E+01  0.167169506E+01  0.250243732E+01
   C -0.185263588E+01 -0.760697977E-01  0.249604431E+01
   C  0.185263588E+01 -0.760697977E-01  0.249604431E+01
   H -0.300359318E+01  0.478543205E+01  0.248866004E+01
   H  0.300359318E+01  0.478543205E+01  0.248866004E+01
   H -0.501431836E+01 -0.496316593E+00  0.252650978E+01
   H  0.501431836E+01 -0.496316593E+00  0.252650978E+01
  Xx  0.932429996E-17  0.134920270E+01 -0.573725766E+03
    11
 # iter = 13000  time[fs]=13.00000
   N -0.983610136E+00 -0.169911527E+01  0.250184931E+01
   N  0.983610136E+00 -0.169911527E+01  0.250184931E+01
   C -0.103121089E+01  0.168387758E+01  0.250248199E+01
   C  0.103121089E+01  0.168387758E+01  0.250248199E+01
   C -0.186799662E+01 -0.780002174E-01  0.249597727E+01
   C  0.186799662E+01 -0.780002174E-01  0.249597727E+01
   H -0.305348994E+01  0.486139118E+01  0.248841408E+01
   H  0.305348994E+01  0.486139118E+01  0.248841408E+01
   H -0.509413928E+01 -0.511192975E+00  0.252703798E+01
   H  0.509413928E+01 -0.511192975E+00  0.252703798E+01
  Xx  0.951105627E-17  0.135122561E+01 -0.585367446E+03
    11
 # iter = 13250  time[fs]=13.25000
   N -0.993124534E+00 -0.171384631E+01  0.250184069E+01
   N  0.993124534E+00 -0.171384631E+01  0.250184069E+01
   C -0.103892656E+01  0.169609543E+01  0.250253602E+01
   C  0.103892656E+01  0.169609543E+01  0.250253602E+01
   C -0.188334545E+01 -0.799975186E-01  0.249590088E+01
   C  0.188334545E+01 -0.799975186E-01  0.249590088E+01
   H -0.310379490E+01  0.493793838E+01  0.248816017E+01
   H  0.310379490E+01  0.493793838E+01  0.248816017E+01
   H -0.517465363E+01 -0.526282270E+00  0.252758407E+01
   H  0.517465363E+01 -0.526282270E+00  0.252758407E+01
  Xx  0.969781242E-17  0.135324853E+01 -0.597009125E+03
    11
 # iter = 13500  time[fs]=13.50000
   N -0.100272649E+01 -0.172860534E+01  0.250183848E+01
   N  0.100272649E+01 -0.172860534E+01  0.250183848E+01
   C -0.104647976E+01  0.170830020E+01  0.250255699E+01
   C  0.104647976E+01  0.170830020E+01  0.250255699E+01
   C -0.189876962E+01 -0.820520148E-01  0.249584992E+01
   C  0.189876962E+01 -0.820520148E-01  0.249584992E+01
   H -0.315451369E+01  0.501509616E+01  0.248790745E+01
   H  0.315451369E+01  0.501509616E+01  0.248790745E+01
   H -0.525589992E+01 -0.541581144E+00  0.252816538E+01
   H  0.525589992E+01 -0.541581144E+00  0.252816538E+01
  Xx  0.988457118E-17  0.135527144E+01 -0.608650805E+03
    11
 # iter = 13750  time[fs]=13.75000
   N -0.101238129E+01 -0.174341238E+01  0.250182115E+01
   N  0.101238129E+01 -0.174341238E+01  0.250182115E+01
   C -0.105392714E+01  0.172047641E+01  0.250256562E+01
   C  0.105392714E+01  0.172047641E+01  0.250256562E+01
   C -0.191422325E+01 -0.840349240E-01  0.249581909E+01
   C  0.191422325E+01 -0.840349240E-01  0.249581909E+01
   H -0.320556561E+01  0.509279152E+01  0.248767969E+01
   H  0.320556561E+01  0.509279152E+01  0.248767969E+01
   H -0.533787381E+01 -0.557088769E+00  0.252876570E+01
   H  0.533787381E+01 -0.557088769E+00  0.252876570E+01
  Xx  0.100713248E-16  0.135729436E+01 -0.620292484E+03
    11
 # iter = 14000  time[fs]=14.00000
   N -0.102206880E+01 -0.175827163E+01  0.250182104E+01
   N  0.102206880E+01 -0.175827163E+01  0.250182104E+01
   C -0.106134476E+01  0.173261514E+01  0.250257782E+01
   C  0.106134476E+01  0.173261514E+01  0.250257782E+01
   C -0.192962745E+01 -0.859603969E-01  0.249577650E+01
   C  0.192962745E+01 -0.859603969E-01  0.249577650E+01
   H -0.325699045E+01  0.517103820E+01  0.248744119E+01
   H  0.325699045E+01  0.517103820E+01  0.248744119E+01
   H -0.542065626E+01 -0.572841170E+00  0.252936791E+01
   H  0.542065626E+01 -0.572841170E+00  0.252936791E+01
  Xx  0.102580795E-16  0.135931727E+01 -0.631934164E+03
    11
 # iter = 14250  time[fs]=14.25000
   N -0.103182822E+01 -0.177311450E+01  0.250179962E+01
   N  0.103182822E+01 -0.177311450E+01  0.250179962E+01
   C -0.106875932E+01  0.174470267E+01  0.250258894E+01
   C  0.106875932E+01  0.174470267E+01  0.250258894E+01
   C -0.194496765E+01 -0.878393580E-01  0.249574784E+01
   C  0.194496765E+01 -0.878393580E-01  0.249574784E+01
   H -0.330878734E+01  0.524984009E+01  0.248720114E+01
   H  0.330878734E+01  0.524984009E+01  0.248720114E+01
   H -0.550416049E+01 -0.588816818E+00  0.252998149E+01
   H  0.550416049E+01 -0.588816818E+00  0.252998149E+01
  Xx  0.104448352E-16  0.136134019E+01 -0.643575843E+03
    11
 # iter = 14500  time[fs]=14.50000
   N -0.104164339E+01 -0.178787593E+01  0.250176276E+01
   N  0.104164339E+01 -0.178787593E+01  0.250176276E+01
   C -0.107613386E+01  0.175677383E+01  0.250260773E+01
   C  0.107613386E+01  0.175677383E+01  0.250260773E+01
   C -0.196024060E+01 -0.897869262E-01  0.249572881E+01
   C  0.196024060E+01 -0.897869262E-01  0.249572881E+01
   H -0.336096412E+01  0.532916672E+01  0.248698367E+01
   H  0.336096412E+01  0.532916672E+01  0.248698367E+01
   H -0.558828730E+01 -0.605017984E+00  0.253060166E+01
   H  0.558828730E+01 -0.605017984E+00  0.253060166E+01
  Xx  0.106315898E-16  0.136336310E+01 -0.655217523E+03
    11
 # iter = 14750  time[fs]=14.75000
   N -0.105149764E+01 -0.180255408E+01  0.250172716E+01
   N  0.105149764E+01 -0.180255408E+01  0.250172716E+01
   C -0.108336308E+01  0.176881313E+01  0.250261163E+01
   C  0.108336308E+01  0.176881313E+01  0.250261163E+01
   C -0.197553730E+01 -0.917666198E-01  0.249571171E+01
   C  0.197553730E+01 -0.917666198E-01  0.249571171E+01
   H -0.341348964E+01  0.540900131E+01  0.248676527E+01
   H  0.341348964E+01  0.540900131E+01  0.248676527E+01
   H -0.567307049E+01 -0.621423380E+00  0.253122599E+01
   H  0.567307049E+01 -0.621423380E+00  0.253122599E+01
  Xx  0.108183443E-16  0.136538602E+01 -0.666859202E+03
    11
 # iter = 15000  time[fs]=15.00000
   N -0.106135910E+01 -0.181714147E+01  0.250169909E+01
   N  0.106135910E+01 -0.181714147E+01  0.250169909E+01
   C -0.109040376E+01  0.178081006E+01  0.250259311E+01
   C  0.109040376E+01  0.178081006E+01  0.250259311E+01
   C -0.199088417E+01 -0.938170217E-01  0.249572047E+01
   C  0.199088417E+01 -0.938170217E-01  0.249572047E+01
   H -0.346634945E+01  0.548933401E+01  0.248653406E+01
   H  0.346634945E+01  0.548933401E+01  0.248653406E+01
   H -0.575845022E+01 -0.638030501E+00  0.253186209E+01
   H  0.575845022E+01 -0.638030501E+00  0.253186209E+01
  Xx  0.110050997E-16  0.136740893E+01 -0.678500881E+03
    11
 # iter = 15250  time[fs]=15.25000
   N -0.107120179E+01 -0.183161887E+01  0.250164268E+01
   N  0.107120179E+01 -0.183161887E+01  0.250164268E+01
   C -0.109734115E+01  0.179277767E+01  0.250257238E+01
   C  0.109734115E+01  0.179277767E+01  0.250257238E+01
   C -0.200622141E+01 -0.958944082E-01  0.249575268E+01
   C  0.200622141E+01 -0.958944082E-01  0.249575268E+01
   H -0.351954556E+01  0.557016515E+01  0.248630763E+01
   H  0.351954556E+01  0.557016515E+01  0.248630763E+01
   H -0.584446206E+01 -0.654842935E+00  0.253249963E+01
   H  0.584446206E+01 -0.654842935E+00  0.253249963E+01
  Xx  0.111918554E-16  0.136943185E+01 -0.690142561E+03
    11
 # iter = 15500  time[fs]=15.50000
   N -0.108101970E+01 -0.184601878E+01  0.250158898E+01
   N  0.108101970E+01 -0.184601878E+01  0.250158898E+01
   C -0.110422152E+01  0.180474091E+01  0.250255745E+01
   C  0.110422152E+01  0.180474091E+01  0.250255745E+01
   C -0.202151476E+01 -0.980384630E-01  0.249578447E+01
   C  0.202151476E+01 -0.980384630E-01  0.249578447E+01
   H -0.357303638E+01  0.565144220E+01  0.248608807E+01
   H  0.357303638E+01  0.565144220E+01  0.248608807E+01
   H -0.593110790E+01 -0.671825655E+00  0.253316133E+01
   H  0.593110790E+01 -0.671825655E+00  0.253316133E+01
  Xx  0.113786088E-16  0.137145476E+01 -0.701784240E+03
    11
 # iter = 15750  time[fs]=15.75000
   N -0.109081289E+01 -0.186032139E+01  0.250153225E+01
   N  0.109081289E+01 -0.186032139E+01  0.250153225E+01
   C -0.111101831E+01  0.181667501E+01  0.250252928E+01
   C  0.111101831E+01  0.181667501E+01  0.250252928E+01
   C -0.203675849E+01 -0.100223316E+00  0.249581668E+01
   C  0.203675849E+01 -0.100223316E+00  0.249581668E+01
   H -0.362682407E+01  0.573318870E+01  0.248584909E+01
   H  0.362682407E+01  0.573318870E+01  0.248584909E+01
   H -0.601831660E+01 -0.688990210E+00  0.253383877E+01
   H  0.601831660E+01 -0.688990210E+00  0.253383877E+01
  Xx  0.115653623E-16  0.137347768E+01 -0.713425920E+03
    11
 # iter = 16000  time[fs]=16.00000
   N -0.110060238E+01 -0.187458206E+01  0.250147946E+01
   N  0.110060238E+01 -0.187458206E+01  0.250147946E+01
   C -0.111769211E+01  0.182852700E+01  0.250252205E+01
   C  0.111769211E+01  0.182852700E+01  0.250252205E+01
   C -0.205201321E+01 -0.102418448E+00  0.249582972E+01
   C  0.205201321E+01 -0.102418448E+00  0.249582972E+01
   H -0.368089794E+01  0.581537462E+01  0.248559051E+01
   H  0.368089794E+01  0.581537462E+01  0.248559051E+01
   H -0.610606373E+01 -0.706323531E+00  0.253449604E+01
   H  0.610606373E+01 -0.706323531E+00  0.253449604E+01
  Xx  0.117521160E-16  0.137550059E+01 -0.725067599E+03
    11
 # iter = 16250  time[fs]=16.25000
   N -0.111038764E+01 -0.188880717E+01  0.250141982E+01
   N  0.111038764E+01 -0.188880717E+01  0.250141982E+01
   C -0.112424869E+01  0.184036269E+01  0.250250645E+01
   C  0.112424869E+01  0.184036269E+01  0.250250645E+01
   C -0.206728261E+01 -0.104623117E+00  0.249586532E+01
   C  0.206728261E+01 -0.104623117E+00  0.249586532E+01
   H -0.373524192E+01  0.589796152E+01  0.248534512E+01
   H  0.373524192E+01  0.589796152E+01  0.248534512E+01
   H -0.619436494E+01 -0.723802991E+00  0.253516367E+01
   H  0.619436494E+01 -0.723802991E+00  0.253516367E+01
  Xx  0.119388717E-16  0.137752351E+01 -0.736709279E+03
    11
 # iter = 16500  time[fs]=16.50000
   N -0.112014499E+01 -0.190301863E+01  0.250135017E+01
   N  0.112014499E+01 -0.190301863E+01  0.250135017E+01
   C -0.113074993E+01  0.185209495E+01  0.250250111E+01
   C  0.113074993E+01  0.185209495E+01  0.250250111E+01
   C -0.208256336E+01 -0.106804167E+00  0.249587510E+01
   C  0.208256336E+01 -0.106804167E+00  0.249587510E+01
   H -0.378987469E+01  0.598097884E+01  0.248510511E+01
   H  0.378987469E+01  0.598097884E+01  0.248510511E+01
   H -0.628319255E+01 -0.741445237E+00  0.253584953E+01
   H  0.628319255E+01 -0.741445237E+00  0.253584953E+01
  Xx  0.121256277E-16  0.137954642E+01 -0.748350958E+03
    11
 # iter = 16750  time[fs]=16.75000
   N -0.112998345E+01 -0.191721250E+01  0.250127396E+01
   N  0.112998345E+01 -0.191721250E+01  0.250127396E+01
   C -0.113724132E+01  0.186376927E+01  0.250247353E+01
   C  0.113724132E+01  0.186376927E+01  0.250247353E+01
   C -0.209773860E+01 -0.108974089E+00  0.249592396E+01
   C  0.209773860E+01 -0.108974089E+00  0.249592396E+01
   H -0.384474608E+01  0.606436042E+01  0.248483885E+01
   H  0.384474608E+01  0.606436042E+01  0.248483885E+01
   H -0.637255126E+01 -0.759251917E+00  0.253653648E+01
   H  0.637255126E+01 -0.759251917E+00  0.253653648E+01
  Xx  0.123123828E-16  0.138156934E+01 -0.759992638E+03
    11
 # iter = 17000  time[fs]=17.00000
   N -0.113992097E+01 -0.193140957E+01  0.250119362E+01
   N  0.113992097E+01 -0.193140957E+01  0.250119362E+01
   C -0.114369537E+01  0.187542445E+01  0.250247285E+01
   C  0.114369537E+01  0.187542445E+01  0.250247285E+01
   C -0.211281657E+01 -0.111209179E+00  0.249595470E+01
   C  0.211281657E+01 -0.111209179E+00  0.249595470E+01
   H -0.389989926E+01  0.614814374E+01  0.248458271E+01
   H  0.389989926E+01  0.614814374E+01  0.248458271E+01
   H -0.646244427E+01 -0.777238890E+00  0.253722092E+01
   H  0.646244427E+01 -0.777238890E+00  0.253722092E+01
  Xx  0.124991394E-16  0.138359225E+01 -0.771634317E+03
    11
 # iter = 17250  time[fs]=17.25000
   N -0.114995748E+01 -0.194560492E+01  0.250112658E+01
   N  0.114995748E+01 -0.194560492E+01  0.250112658E+01
   C -0.115004445E+01  0.188705848E+01  0.250244553E+01
   C  0.115004445E+01  0.188705848E+01  0.250244553E+01
   C -0.212784065E+01 -0.113486006E+00  0.249598645E+01
   C  0.212784065E+01 -0.113486006E+00  0.249598645E+01
   H -0.395530073E+01  0.623229183E+01  0.248433597E+01
   H  0.395530073E+01  0.623229183E+01  0.248433597E+01
   H -0.655284674E+01 -0.795378244E+00  0.253790871E+01
   H  0.655284674E+01 -0.795378244E+00  0.253790871E+01
  Xx  0.126858964E-16  0.138561517E+01 -0.783275997E+03
    11
 # iter = 17500  time[fs]=17.50000
   N -0.116013423E+01 -0.195974701E+01  0.250106354E+01
   N  0.116013423E+01 -0.195974701E+01  0.250106354E+01
   C -0.115631077E+01  0.189867132E+01  0.250243083E+01
   C  0.115631077E+01  0.189867132E+01  0.250243083E+01
   C -0.214282025E+01 -0.115821483E+00  0.249601118E+01
   C  0.214282025E+01 -0.115821483E+00  0.249601118E+01
   H -0.401093802E+01  0.631680127E+01  0.248407328E+01
   H  0.401093802E+01  0.631680127E+01  0.248407328E+01
   H -0.664373471E+01 -0.813669532E+00  0.253860959E+01
   H  0.664373471E+01 -0.813669532E+00  0.253860959E+01
  Xx  0.128726544E-16  0.138763808E+01 -0.794917676E+03
    11
 # iter = 17750  time[fs]=17.75000
   N -0.117043853E+01 -0.197387125E+01  0.250101069E+01
   N  0.117043853E+01 -0.197387125E+01  0.250101069E+01
   C -0.116247839E+01  0.191026698E+01  0.250239544E+01
   C  0.116247839E+01  0.191026698E+01  0.250239544E+01
   C -0.215774243E+01 -0.118256802E+00  0.249602273E+01
   C  0.215774243E+01 -0.118256802E+00  0.249602273E+01
   H -0.406682287E+01  0.640167215E+01  0.248380168E+01
   H  0.406682287E+01  0.640167215E+01  0.248380168E+01
   H -0.673507294E+01 -0.832122171E+00  0.253930702E+01
   H  0.673507294E+01 -0.832122171E+00  0.253930702E+01
  Xx  0.130594138E-16  0.138966100E+01 -0.806559356E+03
    11
 # iter = 18000  time[fs]=18.00000
   N -0.118085090E+01 -0.198793813E+01  0.250095480E+01
   N  0.118085090E+01 -0.198793813E+01  0.250095480E+01
   C -0.116853879E+01  0.192183011E+01  0.250236099E+01
   C  0.116853879E+01  0.192183011E+01  0.250236099E+01
   C -0.217265053E+01 -0.120696994E+00  0.249604279E+01
   C  0.217265053E+01 -0.120696994E+00  0.249604279E+01
   H -0.412293948E+01  0.648688475E+01  0.248354232E+01
   H  0.412293948E+01  0.648688475E+01  0.248354232E+01
   H -0.682686877E+01 -0.850720185E+00  0.253998296E+01
   H  0.682686877E+01 -0.850720185E+00  0.253998296E+01
  Xx  0.132461732E-16  0.139168391E+01 -0.818201035E+03
    11
 # iter = 18250  time[fs]=18.25000
   N -0.119131404E+01 -0.200198783E+01  0.250089058E+01
   N  0.119131404E+01 -0.200198783E+01  0.250089058E+01
   C -0.117456716E+01  0.193331913E+01  0.250232319E+01
   C  0.117456716E+01  0.193331913E+01  0.250232319E+01
   C -0.218756197E+01 -0.123173307E+00  0.249607572E+01
   C  0.218756197E+01 -0.123173307E+00  0.249607572E+01
   H -0.417930994E+01  0.657245428E+01  0.248328585E+01
   H  0.417930994E+01  0.657245428E+01  0.248328585E+01
   H -0.691906523E+01 -0.869466909E+00  0.254067518E+01
   H  0.691906523E+01 -0.869466909E+00  0.254067518E+01
  Xx  0.134329328E-16  0.139370683E+01 -0.829842714E+03
    11
 # iter = 18500  time[fs]=18.50000
   N -0.120181204E+01 -0.201600128E+01  0.250082904E+01
   N  0.120181204E+01 -0.201600128E+01  0.250082904E+01
   C -0.118057138E+01  0.194480498E+01  0.250228160E+01
   C  0.118057138E+01  0.194480498E+01  0.250228160E+01
   C -0.220243703E+01 -0.125633441E+00  0.249611236E+01
   C  0.220243703E+01 -0.125633441E+00  0.249611236E+01
   H -0.423589942E+01  0.665834919E+01  0.248302467E+01
   H  0.423589942E+01  0.665834919E+01  0.248302467E+01
   H -0.701169819E+01 -0.888359277E+00  0.254140492E+01
   H  0.701169819E+01 -0.888359277E+00  0.254140492E+01
  Xx  0.136196931E-16  0.139572974E+01 -0.841484394E+03
    11
 # iter = 18750  time[fs]=18.75000
   N -0.121233132E+01 -0.202993616E+01  0.250075560E+01
   N  0.121233132E+01 -0.202993616E+01  0.250075560E+01
   C -0.118654258E+01  0.195621941E+01  0.250225211E+01
   C  0.118654258E+01  0.195621941E+01  0.250225211E+01
   C -0.221728585E+01 -0.128157828E+00  0.249614126E+01
   C  0.221728585E+01 -0.128157828E+00  0.249614126E+01
   H -0.429271443E+01  0.674458623E+01  0.248275940E+01
   H  0.429271443E+01  0.674458623E+01  0.248275940E+01
   H -0.710473816E+01 -0.907397572E+00  0.254211634E+01
   H  0.710473816E+01 -0.907397572E+00  0.254211634E+01
  Xx  0.138064535E-16  0.139775266E+01 -0.853126073E+03
    11
 # iter = 19000  time[fs]=19.00000
   N -0.122287126E+01 -0.204379246E+01  0.250068340E+01
   N  0.122287126E+01 -0.204379246E+01  0.250068340E+01
   C -0.119247692E+01  0.196760845E+01  0.250221763E+01
   C  0.119247692E+01  0.196760845E+01  0.250221763E+01
   C -0.223209374E+01 -0.130692819E+00  0.249618698E+01
   C  0.223209374E+01 -0.130692819E+00  0.249618698E+01
   H -0.434974241E+01  0.683113992E+01  0.248249068E+01
   H  0.434974241E+01  0.683113992E+01  0.248249068E+01
   H -0.719816198E+01 -0.926574470E+00  0.254280588E+01
   H  0.719816198E+01 -0.926574470E+00  0.254280588E+01
  Xx  0.139932169E-16  0.139977557E+01 -0.864767753E+03
    11
 # iter = 19250  time[fs]=19.25000
   N -0.123343880E+01 -0.205754645E+01  0.250061927E+01
   N  0.123343880E+01 -0.205754645E+01  0.250061927E+01
   C -0.119835002E+01  0.197898626E+01  0.250219474E+01
   C  0.119835002E+01  0.197898626E+01  0.250219474E+01
   C -0.224687766E+01 -0.133265636E+00  0.249620315E+01
   C  0.224687766E+01 -0.133265636E+00  0.249620315E+01
   H -0.440698092E+01  0.691799422E+01  0.248221733E+01
   H  0.440698092E+01  0.691799422E+01  0.248221733E+01
   H -0.729200059E+01 -0.945899987E+00  0.254351498E+01
   H  0.729200059E+01 -0.945899987E+00  0.254351498E+01
  Xx  0.141799843E-16  0.140179849E+01 -0.876409432E+03
    11
 # iter = 19500  time[fs]=19.50000
   N -0.124404348E+01 -0.207115745E+01  0.250055708E+01
   N  0.124404348E+01 -0.207115745E+01  0.250055708E+01
   C -0.120412124E+01  0.199031944E+01  0.250215989E+01
   C  0.120412124E+01  0.199031944E+01  0.250215989E+01
   C -0.226163181E+01 -0.135949988E+00  0.249624600E+01
   C  0.226163181E+01 -0.135949988E+00  0.249624600E+01
   H -0.446443740E+01  0.700517551E+01  0.248194190E+01
   H  0.446443740E+01  0.700517551E+01  0.248194190E+01
   H -0.738620737E+01 -0.965360218E+00  0.254423330E+01
   H  0.738620737E+01 -0.965360218E+00  0.254423330E+01
  Xx  0.143667518E-16  0.140382140E+01 -0.888051112E+03
    11
 # iter = 19750  time[fs]=19.75000
   N -0.125468734E+01 -0.208462300E+01  0.250049637E+01
   N  0.125468734E+01 -0.208462300E+01  0.250049637E+01
   C -0.120981690E+01  0.200164159E+01  0.250212763E+01
   C  0.120981690E+01  0.200164159E+01  0.250212763E+01
   C -0.227638169E+01 -0.138711921E+00  0.249627608E+01
   C  0.227638169E+01 -0.138711921E+00  0.249627608E+01
   H -0.452209700E+01  0.709266285E+01  0.248166643E+01
   H  0.452209700E+01  0.709266285E+01  0.248166643E+01
   H -0.748080519E+01 -0.984945510E+00  0.254493789E+01
   H  0.748080519E+01 -0.984945510E+00  0.254493789E+01
  Xx  0.145535192E-16  0.140584432E+01 -0.899692791E+03
    11
 # iter = 20000  time[fs]=20.00000
   N -0.126535440E+01 -0.209796086E+01  0.250042826E+01
   N  0.126535440E+01 -0.209796086E+01  0.250042826E+01
   C -0.121541643E+01  0.201291674E+01  0.250208850E+01
   C  0.121541643E+01  0.201291674E+01  0.250208850E+01
   C -0.229109302E+01 -0.141566868E+00  0.249631290E+01
   C  0.229109302E+01 -0.141566868E+00  0.249631290E+01
   H -0.457995418E+01  0.718043307E+01  0.248138682E+01
   H  0.457995418E+01  0.718043307E+01  0.248138682E+01
   H -0.757576804E+01 -0.100466743E+01  0.254564456E+01
   H  0.757576804E+01 -0.100466743E+01  0.254564456E+01
  Xx  0.147402867E-16  0.140786723E+01 -0.911334471E+03
    11
 # iter = 20250  time[fs]=20.25000
   N -0.127602824E+01 -0.211117322E+01  0.250036208E+01
   N  0.127602824E+01 -0.211117322E+01  0.250036208E+01
   C -0.122094870E+01  0.202416207E+01  0.250205294E+01
   C  0.122094870E+01  0.202416207E+01  0.250205294E+01
   C -0.230575389E+01 -0.144487271E+00  0.249635097E+01
   C  0.230575389E+01 -0.144487271E+00  0.249635097E+01
   H -0.463800401E+01  0.726850316E+01  0.248110811E+01
   H  0.463800401E+01  0.726850316E+01  0.248110811E+01
   H -0.767109903E+01 -0.102452055E+01  0.254636648E+01
   H  0.767109903E+01 -0.102452055E+01  0.254636648E+01
  Xx  0.149270541E-16  0.140989015E+01 -0.922976150E+03
    11
 # iter = 20500  time[fs]=20.50000
   N -0.128674447E+01 -0.212430901E+01  0.250030094E+01
   N  0.128674447E+01 -0.212430901E+01  0.250030094E+01
   C -0.122639666E+01  0.203539045E+01  0.250202006E+01
   C  0.122639666E+01  0.203539045E+01  0.250202006E+01
   C -0.232033597E+01 -0.147432095E+00  0.249637134E+01
   C  0.232033597E+01 -0.147432095E+00  0.249637134E+01
   H -0.469622797E+01  0.735683610E+01  0.248083586E+01
   H  0.469622797E+01  0.735683610E+01  0.248083586E+01
   H -0.776680650E+01 -0.104449407E+01  0.254709489E+01
   H  0.776680650E+01 -0.104449407E+01  0.254709489E+01
  Xx  0.151138216E-16  0.141191306E+01 -0.934617830E+03
    11
 # iter = 20750  time[fs]=20.75000
   N -0.129747946E+01 -0.213738246E+01  0.250024979E+01
   N  0.129747946E+01 -0.213738246E+01  0.250024979E+01
   C -0.123177937E+01  0.204655022E+01  0.250199282E+01
   C  0.123177937E+01  0.204655022E+01  0.250199282E+01
   C -0.233485412E+01 -0.150454970E+00  0.249637786E+01
   C  0.233485412E+01 -0.150454970E+00  0.249637786E+01
   H -0.475465558E+01  0.744544483E+01  0.248056449E+01
   H  0.475465558E+01  0.744544483E+01  0.248056449E+01
   H -0.786287568E+01 -0.106460343E+01  0.254782399E+01
   H  0.786287568E+01 -0.106460343E+01  0.254782399E+01
  Xx  0.153005890E-16  0.141393598E+01 -0.946259509E+03
    11
 # iter = 21000  time[fs]=21.00000
   N -0.130821191E+01 -0.215040518E+01  0.250019989E+01
   N  0.130821191E+01 -0.215040518E+01  0.250019989E+01
   C -0.123709206E+01  0.205769524E+01  0.250196670E+01
   C  0.123709206E+01  0.205769524E+01  0.250196670E+01
   C -0.234930578E+01 -0.153551985E+00  0.249637937E+01
   C  0.234930578E+01 -0.153551985E+00  0.249637937E+01
   H -0.481327589E+01  0.753433667E+01  0.248028946E+01
   H  0.481327589E+01  0.753433667E+01  0.248028946E+01
   H -0.795931032E+01 -0.108484294E+01  0.254855314E+01
   H  0.795931032E+01 -0.108484294E+01  0.254855314E+01
  Xx  0.154873565E-16  0.141595889E+01 -0.957901189E+03
    11
 # iter = 21250  time[fs]=21.25000
   N -0.131893106E+01 -0.216336882E+01  0.250013887E+01
   N  0.131893106E+01 -0.216336882E+01  0.250013887E+01
   C -0.124230253E+01  0.206883627E+01  0.250194568E+01
   C  0.124230253E+01  0.206883627E+01  0.250194568E+01
   C -0.236372609E+01 -0.156707561E+00  0.249638990E+01
   C  0.236372609E+01 -0.156707561E+00  0.249638990E+01
   H -0.487206296E+01  0.762348547E+01  0.248001357E+01
   H  0.487206296E+01  0.762348547E+01  0.248001357E+01
   H -0.805610194E+01 -0.110520622E+01  0.254928698E+01
   H  0.805610194E+01 -0.110520622E+01  0.254928698E+01
  Xx  0.156741240E-16  0.141798181E+01 -0.969542868E+03
    11
 # iter = 21500  time[fs]=21.50000
   N -0.132959248E+01 -0.217631836E+01  0.250007182E+01
   N  0.132959248E+01 -0.217631836E+01  0.250007182E+01
   C -0.124746930E+01  0.207992624E+01  0.250194168E+01
   C  0.124746930E+01  0.207992624E+01  0.250194168E+01
   C -0.237809608E+01 -0.159997776E+00  0.249639848E+01
   C  0.237809608E+01 -0.159997776E+00  0.249639848E+01
   H -0.493104790E+01  0.771291818E+01  0.247973398E+01
   H  0.493104790E+01  0.771291818E+01  0.247973398E+01
   H -0.815324400E+01 -0.112570787E+01  0.255002479E+01
   H  0.815324400E+01 -0.112570787E+01  0.255002479E+01
  Xx  0.158608927E-16  0.142000472E+01 -0.981184548E+03
    11
 # iter = 21750  time[fs]=21.75000
   N -0.134022950E+01 -0.218924339E+01  0.250000438E+01
   N  0.134022950E+01 -0.218924339E+01  0.250000438E+01
   C -0.125256906E+01  0.209101160E+01  0.250192679E+01
   C  0.125256906E+01  0.209101160E+01  0.250192679E+01
   C -0.239243049E+01 -0.163319387E+00  0.249640504E+01
   C  0.239243049E+01 -0.163319387E+00  0.249640504E+01
   H -0.499020930E+01  0.780260777E+01  0.247944893E+01
   H  0.499020930E+01  0.780260777E+01  0.247944893E+01
   H -0.825074196E+01 -0.114633008E+01  0.255076245E+01
   H  0.825074196E+01 -0.114633008E+01  0.255076245E+01
  Xx  0.160476632E-16  0.142202764E+01 -0.992826227E+03
    11
 # iter = 22000  time[fs]=22.00000
   N -0.135081933E+01 -0.220218585E+01  0.249994555E+01
   N  0.135081933E+01 -0.220218585E+01  0.249994555E+01
   C -0.125761670E+01  0.210206014E+01  0.250192150E+01
   C  0.125761670E+01  0.210206014E+01  0.250192150E+01
   C -0.240670252E+01 -0.166669156E+00  0.249640187E+01
   C  0.240670252E+01 -0.166669156E+00  0.249640187E+01
   H -0.504954181E+01  0.789255544E+01  0.247916086E+01
   H  0.504954181E+01  0.789255544E+01  0.247916086E+01
   H -0.834859466E+01 -0.116707521E+01  0.255150562E+01
   H  0.834859466E+01 -0.116707521E+01  0.255150562E+01
  Xx  0.162344336E-16  0.142405056E+01 -0.100446791E+04
    11
 # iter = 22250  time[fs]=22.25000
   N -0.136137795E+01 -0.221515474E+01  0.249989686E+01
   N  0.136137795E+01 -0.221515474E+01  0.249989686E+01
   C -0.126261700E+01  0.211303593E+01  0.250192767E+01
   C  0.126261700E+01  0.211303593E+01  0.250192767E+01
   C -0.242094675E+01 -0.170040807E+00  0.249638195E+01
   C  0.242094675E+01 -0.170040807E+00  0.249638195E+01
   H -0.510906246E+01  0.798277612E+01  0.247886600E+01
   H  0.510906246E+01  0.798277612E+01  0.247886600E+01
   H -0.844679006E+01 -0.118794757E+01  0.255225715E+01
   H  0.844679006E+01 -0.118794757E+01  0.255225715E+01
  Xx  0.164212048E-16  0.142607347E+01 -0.101610959E+04
    11
 # iter = 22500  time[fs]=22.50000
   N -0.137191667E+01 -0.222813071E+01  0.249985583E+01
   N  0.137191667E+01 -0.222813071E+01  0.249985583E+01
   C -0.126758798E+01  0.212396704E+01  0.250192491E+01
   C  0.126758798E+01  0.212396704E+01  0.250192491E+01
   C -0.243514414E+01 -0.173391083E+00  0.249635642E+01
   C  0.243514414E+01 -0.173391083E+00  0.249635642E+01
   H -0.516875834E+01  0.807325302E+01  0.247856543E+01
   H  0.516875834E+01  0.807325302E+01  0.247856543E+01
   H -0.854533125E+01 -0.120894255E+01  0.255301253E+01
   H  0.854533125E+01 -0.120894255E+01  0.255301253E+01
  Xx  0.166079778E-16  0.142809639E+01 -0.102775127E+04
    11
 # iter = 22750  time[fs]=22.75000
   N -0.138245282E+01 -0.224109259E+01  0.249981147E+01
   N  0.138245282E+01 -0.224109259E+01  0.249981147E+01
   C -0.127250040E+01  0.213486825E+01  0.250192733E+01
   C  0.127250040E+01  0.213486825E+01  0.250192733E+01
   C -0.244930824E+01 -0.176770255E+00  0.249632738E+01
   C  0.244930824E+01 -0.176770255E+00  0.249632738E+01
   H -0.522862874E+01  0.816398918E+01  0.247826565E+01
   H  0.522862874E+01  0.816398918E+01  0.247826565E+01
   H -0.864421016E+01 -0.123006111E+01  0.255377193E+01
   H  0.864421016E+01 -0.123006111E+01  0.255377193E+01
  Xx  0.167947509E-16  0.143011930E+01 -0.103939294E+04
    11
 # iter = 23000  time[fs]=23.00000
   N -0.139299221E+01 -0.225402447E+01  0.249977418E+01
   N  0.139299221E+01 -0.225402447E+01  0.249977418E+01
   C -0.127737847E+01  0.214569715E+01  0.250193232E+01
   C  0.127737847E+01  0.214569715E+01  0.250193232E+01
   C -0.246342499E+01 -0.180177951E+00  0.249629754E+01
   C  0.246342499E+01 -0.180177951E+00  0.249629754E+01
   H -0.528868174E+01  0.825498995E+01  0.247796682E+01
   H  0.528868174E+01  0.825498995E+01  0.247796682E+01
   H -0.874341878E+01 -0.125130949E+01  0.255453574E+01
   H  0.874341878E+01 -0.125130949E+01  0.255453574E+01
  Xx  0.169815252E-16  0.143214222E+01 -0.105103462E+04
    11
 # iter = 23250  time[fs]=23.25000
   N -0.140355698E+01 -0.226691877E+01  0.249973164E+01
   N  0.140355698E+01 -0.226691877E+01  0.249973164E+01
   C -0.128221404E+01  0.215649644E+01  0.250192151E+01
   C  0.128221404E+01  0.215649644E+01  0.250192151E+01
   C -0.247751698E+01 -0.183604731E+00  0.249628482E+01
   C  0.247751698E+01 -0.183604731E+00  0.249628482E+01
   H -0.534891315E+01  0.834624809E+01  0.247766523E+01
   H  0.534891315E+01  0.834624809E+01  0.247766523E+01
   H -0.884295374E+01 -0.127268594E+01  0.255530390E+01
   H  0.884295374E+01 -0.127268594E+01  0.255530390E+01
  Xx  0.171683053E-16  0.143416513E+01 -0.106267630E+04
    11
 # iter = 23500  time[fs]=23.50000
   N -0.141416297E+01 -0.227974810E+01  0.249968451E+01
   N  0.141416297E+01 -0.227974810E+01  0.249968451E+01
   C -0.128701431E+01  0.216724584E+01  0.250190868E+01
   C  0.128701431E+01  0.216724584E+01  0.250190868E+01
   C -0.249155386E+01 -0.187025155E+00  0.249628393E+01
   C  0.249155386E+01 -0.187025155E+00  0.249628393E+01
   H -0.540931709E+01  0.843776008E+01  0.247736264E+01
   H  0.540931709E+01  0.843776008E+01  0.247736264E+01
   H -0.894280999E+01 -0.129418437E+01  0.255607711E+01
   H  0.894280999E+01 -0.129418437E+01  0.255607711E+01
  Xx  0.173550865E-16  0.143618805E+01 -0.107431798E+04
    11
 # iter = 23750  time[fs]=23.75000
   N -0.142481536E+01 -0.229250224E+01  0.249962612E+01
   N  0.142481536E+01 -0.229250224E+01  0.249962612E+01
   C -0.129175290E+01  0.217795871E+01  0.250189168E+01
   C  0.129175290E+01  0.217795871E+01  0.250189168E+01
   C -0.250555592E+01 -0.190500130E+00  0.249629993E+01
   C  0.250555592E+01 -0.190500130E+00  0.249629993E+01
   H -0.546989621E+01  0.852952671E+01  0.247706005E+01
   H  0.546989621E+01  0.852952671E+01  0.247706005E+01
   H -0.904297909E+01 -0.131580602E+01  0.255685434E+01
   H  0.904297909E+01 -0.131580602E+01  0.255685434E+01
  Xx  0.175418677E-16  0.143821096E+01 -0.108595966E+04
    11
 # iter = 24000  time[fs]=24.00000
   N -0.143553327E+01 -0.230516416E+01  0.249956134E+01
   N  0.143553327E+01 -0.230516416E+01  0.249956134E+01
   C -0.129644492E+01  0.218866108E+01  0.250186556E+01
   C  0.129644492E+01  0.218866108E+01  0.250186556E+01
   C -0.251951308E+01 -0.194041168E+00  0.249633097E+01
   C  0.251951308E+01 -0.194041168E+00  0.249633097E+01
   H -0.553064972E+01  0.862154361E+01  0.247675671E+01
   H  0.553064972E+01  0.862154361E+01  0.247675671E+01
   H -0.914345475E+01 -0.133754992E+01  0.255763459E+01
   H  0.914345475E+01 -0.133754992E+01  0.255763459E+01
  Xx  0.177286489E-16  0.144023388E+01 -0.109760134E+04
    11
 # iter = 24250  time[fs]=24.25000
   N -0.144632988E+01 -0.231770821E+01  0.249949129E+01
   N  0.144632988E+01 -0.231770821E+01  0.249949129E+01
   C -0.130106574E+01  0.219933890E+01  0.250184794E+01
   C  0.130106574E+01  0.219933890E+01  0.250184794E+01
   C -0.253343640E+01 -0.197639819E+00  0.249637043E+01
   C  0.253343640E+01 -0.197639819E+00  0.249637043E+01
   H -0.559157219E+01  0.871380623E+01  0.247645237E+01
   H  0.559157219E+01  0.871380623E+01  0.247645237E+01
   H -0.924423358E+01 -0.135941274E+01  0.255841722E+01
   H  0.924423358E+01 -0.135941274E+01  0.255841722E+01
  Xx  0.179154318E-16  0.144225679E+01 -0.110924302E+04
    11
 # iter = 24500  time[fs]=24.50000
   N -0.145719358E+01 -0.233014472E+01  0.249942487E+01
   N  0.145719358E+01 -0.233014472E+01  0.249942487E+01
   C -0.130560309E+01  0.221000589E+01  0.250182873E+01
   C  0.130560309E+01  0.221000589E+01  0.250182873E+01
   C -0.254730261E+01 -0.201318947E+00  0.249639052E+01
   C  0.254730261E+01 -0.201318947E+00  0.249639052E+01
   H -0.565265708E+01  0.880630880E+01  0.247614546E+01
   H  0.565265708E+01  0.880630880E+01  0.247614546E+01
   H -0.934531643E+01 -0.138139466E+01  0.255920084E+01
   H  0.934531643E+01 -0.138139466E+01  0.255920084E+01
  Xx  0.181022208E-16  0.144427971E+01 -0.112088470E+04
    11
 # iter = 24750  time[fs]=24.75000
   N -0.146814114E+01 -0.234244946E+01  0.249936357E+01
   N  0.146814114E+01 -0.234244946E+01  0.249936357E+01
   C -0.131009971E+01  0.222064034E+01  0.250181165E+01
   C  0.131009971E+01  0.222064034E+01  0.250181165E+01
   C -0.256114669E+01 -0.205025381E+00  0.249641836E+01
   C  0.256114669E+01 -0.205025381E+00  0.249641836E+01
   H -0.571390480E+01  0.889904827E+01  0.247583567E+01
   H  0.571390480E+01  0.889904827E+01  0.247583567E+01
   H -0.944669249E+01 -0.140349109E+01  0.255998570E+01
   H  0.944669249E+01 -0.140349109E+01  0.255998570E+01
  Xx  0.182890108E-16  0.144630262E+01 -0.113252638E+04
    11
 # iter = 25000  time[fs]=25.00000
   N -0.147914468E+01 -0.235468090E+01  0.249931449E+01
   N  0.147914468E+01 -0.235468090E+01  0.249931449E+01
   C -0.131453332E+01  0.223124338E+01  0.250180901E+01
   C  0.131453332E+01  0.223124338E+01  0.250180901E+01
   C -0.257489384E+01 -0.208821184E+00  0.249641794E+01
   C  0.257489384E+01 -0.208821184E+00  0.249641794E+01
   H -0.577531285E+01  0.899202285E+01  0.247552282E+01
   H  0.577531285E+01  0.899202285E+01  0.247552282E+01
   H -0.954836474E+01 -0.142570781E+01  0.256077158E+01
   H  0.954836474E+01 -0.142570781E+01  0.256077158E+01
  Xx  0.184758036E-16  0.144832554E+01 -0.114416806E+04
    11
 # iter = 25250  time[fs]=25.25000
   N -0.149020263E+01 -0.236681024E+01  0.249926879E+01
   N  0.149020263E+01 -0.236681024E+01  0.249926879E+01
   C -0.131890317E+01  0.224183153E+01  0.250179927E+01
   C  0.131890317E+01  0.224183153E+01  0.250179927E+01
   C -0.258862598E+01 -0.212635794E+00  0.249641438E+01
   C  0.258862598E+01 -0.212635794E+00  0.249641438E+01
   H -0.583687222E+01  0.908522022E+01  0.247520750E+01
   H  0.583687222E+01  0.908522022E+01  0.247520750E+01
   H -0.965032658E+01 -0.144803216E+01  0.256155941E+01
   H  0.965032658E+01 -0.144803216E+01  0.256155941E+01
  Xx  0.186625993E-16  0.145034845E+01 -0.115580974E+04
    11
 # iter = 25500  time[fs]=25.50000
   N -0.150129065E+01 -0.237886540E+01  0.249922611E+01
   N  0.150129065E+01 -0.237886540E+01  0.249922611E+01
   C -0.132321723E+01  0.225240846E+01  0.250179163E+01
   C  0.132321723E+01  0.225240846E+01  0.250179163E+01
   C -0.260225562E+01 -0.216530278E+00  0.249640724E+01
   C  0.260225562E+01 -0.216530278E+00  0.249640724E+01
   H -0.589857983E+01  0.917863674E+01  0.247489031E+01
   H  0.589857983E+01  0.917863674E+01  0.247489031E+01
   H -0.975257715E+01 -0.147046598E+01  0.256234962E+01
   H  0.975257715E+01 -0.147046598E+01  0.256234962E+01
  Xx  0.188493972E-16  0.145237137E+01 -0.116745142E+04
    11
 # iter = 25750  time[fs]=25.75000
   N -0.151239395E+01 -0.239086799E+01  0.249918366E+01
   N  0.151239395E+01 -0.239086799E+01  0.249918366E+01
   C -0.132744735E+01  0.226296091E+01  0.250179150E+01
   C  0.132744735E+01  0.226296091E+01  0.250179150E+01
   C -0.261585848E+01 -0.220506214E+00  0.249640317E+01
   C  0.261585848E+01 -0.220506214E+00  0.249640317E+01
   H -0.596043564E+01  0.927226908E+01  0.247457220E+01
   H  0.596043564E+01  0.927226908E+01  0.247457220E+01
   H -0.985510699E+01 -0.149300729E+01  0.256314290E+01
   H  0.985510699E+01 -0.149300729E+01  0.256314290E+01
  Xx  0.190362010E-16  0.145439428E+01 -0.117909310E+04
    11
 # iter = 26000  time[fs]=26.00000
   N -0.152350382E+01 -0.240282760E+01  0.249914469E+01
   N  0.152350382E+01 -0.240282760E+01  0.249914469E+01
   C -0.133161722E+01  0.227350373E+01  0.250177765E+01
   C  0.133161722E+01  0.227350373E+01  0.250177765E+01
   C -0.262941036E+01 -0.224533252E+00  0.249640763E+01
   C  0.262941036E+01 -0.224533252E+00  0.249640763E+01
   H -0.602243535E+01  0.936611220E+01  0.247425342E+01
   H  0.602243535E+01  0.936611220E+01  0.247425342E+01
   H -0.995791161E+01 -0.151565235E+01  0.256393933E+01
   H  0.995791161E+01 -0.151565235E+01  0.256393933E+01
  Xx  0.192230081E-16  0.145641720E+01 -0.119073478E+04
    11
 # iter = 26250  time[fs]=26.25000
   N -0.153460065E+01 -0.241476068E+01  0.249909174E+01
   N  0.153460065E+01 -0.241476068E+01  0.249909174E+01
   C -0.133572658E+01  0.228401547E+01  0.250176767E+01
   C  0.133572658E+01  0.228401547E+01  0.250176767E+01
   C -0.264291443E+01 -0.228665890E+00  0.249642716E+01
   C  0.264291443E+01 -0.228665890E+00  0.249642716E+01
   H -0.608457882E+01  0.946016508E+01  0.247393439E+01
   H  0.608457882E+01  0.946016508E+01  0.247393439E+01
   H -0.100609858E+02 -0.153840154E+01  0.256473898E+01
   H  0.100609858E+02 -0.153840154E+01  0.256473898E+01
  Xx  0.194098206E-16  0.145844011E+01 -0.120237646E+04
    11
 # iter = 26500  time[fs]=26.50000
   N -0.154568694E+01 -0.242667190E+01  0.249903355E+01
   N  0.154568694E+01 -0.242667190E+01  0.249903355E+01
   C -0.133976011E+01  0.229450549E+01  0.250176235E+01
   C  0.133976011E+01  0.229450549E+01  0.250176235E+01
   C -0.265640033E+01 -0.232813175E+00  0.249644558E+01
   C  0.265640033E+01 -0.232813175E+00  0.249644558E+01
   H -0.614686156E+01  0.955442253E+01  0.247361516E+01
   H  0.614686156E+01  0.955442253E+01  0.247361516E+01
   H -0.101643233E+02 -0.156124869E+01  0.256554139E+01
   H  0.101643233E+02 -0.156124869E+01  0.256554139E+01
  Xx  0.195966339E-16  0.146046303E+01 -0.121401814E+04
    11
 # iter = 26750  time[fs]=26.75000
   N -0.155672950E+01 -0.243859066E+01  0.249897117E+01
   N  0.155672950E+01 -0.243859066E+01  0.249897117E+01
   C -0.134372743E+01  0.230497769E+01  0.250174105E+01
   C  0.134372743E+01  0.230497769E+01  0.250174105E+01
   C -0.266985929E+01 -0.237075794E+00  0.249648700E+01
   C  0.266985929E+01 -0.237075794E+00  0.249648700E+01
   H -0.620928705E+01  0.964888623E+01  0.247329503E+01
   H  0.620928705E+01  0.964888623E+01  0.247329503E+01
   H -0.102679181E+02 -0.158419885E+01  0.256634628E+01
   H  0.102679181E+02 -0.158419885E+01  0.256634628E+01
  Xx  0.197834516E-16  0.146248594E+01 -0.122565982E+04
    11
 # iter = 27000  time[fs]=27.00000
   N -0.156774186E+01 -0.245049365E+01  0.249889728E+01
   N  0.156774186E+01 -0.245049365E+01  0.249889728E+01
   C -0.134764717E+01  0.231541442E+01  0.250172786E+01
   C  0.134764717E+01  0.231541442E+01  0.250172786E+01
   C -0.268328585E+01 -0.241367113E+00  0.249652744E+01
   C  0.268328585E+01 -0.241367113E+00  0.249652744E+01
   H -0.627185145E+01  0.974355020E+01  0.247297341E+01
   H  0.627185145E+01  0.974355020E+01  0.247297341E+01
   H -0.103717635E+02 -0.160724625E+01  0.256715255E+01
   H  0.103717635E+02 -0.160724625E+01  0.256715255E+01
  Xx  0.199702706E-16  0.146450886E+01 -0.123730150E+04
    11
 # iter = 27250  time[fs]=27.25000
   N -0.157870816E+01 -0.246240715E+01  0.249881943E+01
   N  0.157870816E+01 -0.246240715E+01  0.249881943E+01
   C -0.135149358E+01  0.232583415E+01  0.250171359E+01
   C  0.135149358E+01  0.232583415E+01  0.250171359E+01
   C -0.269669224E+01 -0.245717036E+00  0.249656483E+01
   C  0.269669224E+01 -0.245717036E+00  0.249656483E+01
   H -0.633455070E+01  0.983840978E+01  0.247265002E+01
   H  0.633455070E+01  0.983840978E+01  0.247265002E+01
   H -0.104758576E+02 -0.163039042E+01  0.256795996E+01
   H  0.104758576E+02 -0.163039042E+01  0.256795996E+01
  Xx  0.201570863E-16  0.146653177E+01 -0.124894318E+04
    11
 # iter = 27500  time[fs]=27.50000
   N -0.158963704E+01 -0.247432587E+01  0.249874687E+01
   N  0.158963704E+01 -0.247432587E+01  0.249874687E+01
   C -0.135528453E+01  0.233623266E+01  0.250168917E+01
   C  0.135528453E+01  0.233623266E+01  0.250168917E+01
   C -0.271006036E+01 -0.250111720E+00  0.249661194E+01
   C  0.271006036E+01 -0.250111720E+00  0.249661194E+01
   H -0.639738150E+01  0.993346270E+01  0.247232462E+01
   H  0.639738150E+01  0.993346270E+01  0.247232462E+01
   H -0.105801970E+02 -0.165363019E+01  0.256876864E+01
   H  0.105801970E+02 -0.165363019E+01  0.256876864E+01
  Xx  0.203439084E-16  0.146855469E+01 -0.126058485E+04
    11
 # iter = 27750  time[fs]=27.75000
   N -0.160055863E+01 -0.248622231E+01  0.249867628E+01
   N  0.160055863E+01 -0.248622231E+01  0.249867628E+01
   C -0.135900790E+01  0.234659547E+01  0.250166957E+01
   C  0.135900790E+01  0.234659547E+01  0.250166957E+01
   C -0.272338238E+01 -0.254527879E+00  0.249664927E+01
   C  0.272338238E+01 -0.254527879E+00  0.249664927E+01
   H -0.646034063E+01  0.100287035E+02  0.247199757E+01
   H  0.646034063E+01  0.100287035E+02  0.247199757E+01
   H -0.106847763E+02 -0.167696173E+01  0.256957863E+01
   H  0.106847763E+02 -0.167696173E+01  0.256957863E+01
  Xx  0.205307337E-16  0.147057760E+01 -0.127222653E+04
    11
 # iter = 28000  time[fs]=28.00000
   N -0.161147250E+01 -0.249810436E+01  0.249859837E+01
   N  0.161147250E+01 -0.249810436E+01  0.249859837E+01
   C -0.136267289E+01  0.235694776E+01  0.250163743E+01
   C  0.136267289E+01  0.235694776E+01  0.250163743E+01
   C -0.273667664E+01 -0.259007926E+00  0.249668654E+01
   C  0.273667664E+01 -0.259007926E+00  0.249668654E+01
   H -0.652342635E+01  0.101241308E+02  0.247166913E+01
   H  0.652342635E+01  0.101241308E+02  0.247166913E+01
   H -0.107895920E+02 -0.170038686E+01  0.257038999E+01
   H  0.107895920E+02 -0.170038686E+01  0.257038999E+01
  Xx  0.207175636E-16  0.147260052E+01 -0.128386821E+04
    11
 # iter = 28250  time[fs]=28.25000
   N -0.162239966E+01 -0.250994695E+01  0.249852437E+01
   N  0.162239966E+01 -0.250994695E+01  0.249852437E+01
   C -0.136627131E+01  0.236727011E+01  0.250160976E+01
   C  0.136627131E+01  0.236727011E+01  0.250160976E+01
   C -0.274992177E+01 -0.263515816E+00  0.249672800E+01
   C  0.274992177E+01 -0.263515816E+00  0.249672800E+01
   H -0.658663661E+01  0.102197405E+02  0.247134006E+01
   H  0.658663661E+01  0.102197405E+02  0.247134006E+01
   H -0.108946387E+02 -0.172390219E+01  0.257120319E+01
   H  0.108946387E+02 -0.172390219E+01  0.257120319E+01
  Xx  0.209044063E-16  0.147462343E+01 -0.129550989E+04
    11
 # iter = 28500  time[fs]=28.50000
   N -0.163334018E+01 -0.252171772E+01  0.249844977E+01
   N  0.163334018E+01 -0.252171772E+01  0.249844977E+01
   C -0.136981773E+01  0.237758221E+01  0.250157984E+01
   C  0.136981773E+01  0.237758221E+01  0.250157984E+01
   C -0.276313458E+01 -0.268081531E+00  0.249677627E+01
   C  0.276313458E+01 -0.268081531E+00  0.249677627E+01
   H -0.664996904E+01  0.103155282E+02  0.247101039E+01
   H  0.664996904E+01  0.103155282E+02  0.247101039E+01
   H -0.109999112E+02 -0.174750449E+01  0.257201818E+01
   H  0.109999112E+02 -0.174750449E+01  0.257201818E+01
  Xx  0.210912590E-16  0.147664635E+01 -0.130715157E+04
    11
 # iter = 28750  time[fs]=28.75000
   N -0.164431337E+01 -0.253341767E+01  0.249836617E+01
   N  0.164431337E+01 -0.253341767E+01  0.249836617E+01
   C -0.137329598E+01  0.238788106E+01  0.250153432E+01
   C  0.137329598E+01  0.238788106E+01  0.250153432E+01
   C -0.277632797E+01 -0.272695142E+00  0.249683996E+01
   C  0.277632797E+01 -0.272695142E+00  0.249683996E+01
   H -0.671342359E+01  0.104114934E+02  0.247067997E+01
   H  0.671342359E+01  0.104114934E+02  0.247067997E+01
   H -0.111054038E+02 -0.177119392E+01  0.257283533E+01
   H  0.111054038E+02 -0.177119392E+01  0.257283533E+01
  Xx  0.212781213E-16  0.147866926E+01 -0.131879325E+04
    11
 # iter = 29000  time[fs]=29.00000
   N -0.165532532E+01 -0.254503109E+01  0.249827680E+01
   N  0.165532532E+01 -0.254503109E+01  0.249827680E+01
   C -0.137672787E+01  0.239816853E+01  0.250149909E+01
   C  0.137672787E+01  0.239816853E+01  0.250149909E+01
   C -0.278948871E+01 -0.277371649E+00  0.249691531E+01
   C  0.278948871E+01 -0.277371649E+00  0.249691531E+01
   H -0.677699988E+01  0.105076332E+02  0.247034904E+01
   H  0.677699988E+01  0.105076332E+02  0.247034904E+01
   H -0.112111113E+02 -0.179496962E+01  0.257365503E+01
   H  0.112111113E+02 -0.179496962E+01  0.257365503E+01
  Xx  0.214649962E-16  0.148069218E+01 -0.133043493E+04
    11
 # iter = 29250  time[fs]=29.25000
   N -0.166641064E+01 -0.255654986E+01  0.249818348E+01
   N  0.166641064E+01 -0.255654986E+01  0.249818348E+01
   C -0.138008761E+01  0.240843727E+01  0.250145560E+01
   C  0.138008761E+01  0.240843727E+01  0.250145560E+01
   C -0.280263609E+01 -0.282108459E+00  0.249701317E+01
   C  0.280263609E+01 -0.282108459E+00  0.249701317E+01
   H -0.684069566E+01  0.106039446E+02  0.247001778E+01
   H  0.684069566E+01  0.106039446E+02  0.247001778E+01
   H -0.113170280E+02 -0.181882921E+01  0.257447717E+01
   H  0.113170280E+02 -0.181882921E+01  0.257447717E+01
  Xx  0.216518829E-16  0.148271509E+01 -0.134207661E+04
    11
 # iter = 29500  time[fs]=29.50000
   N -0.167756216E+01 -0.256796544E+01  0.249808900E+01
   N  0.167756216E+01 -0.256796544E+01  0.249808900E+01
   C -0.138338645E+01  0.241871293E+01  0.250139002E+01
   C  0.138338645E+01  0.241871293E+01  0.250139002E+01
   C -0.281575290E+01 -0.286889507E+00  0.249711859E+01
   C  0.281575290E+01 -0.286889507E+00  0.249711859E+01
   H -0.690450751E+01  0.107004248E+02  0.246968602E+01
   H  0.690450751E+01  0.107004248E+02  0.246968602E+01
   H -0.114231533E+02 -0.184277225E+01  0.257530134E+01
   H  0.114231533E+02 -0.184277225E+01  0.257530134E+01
  Xx  0.218387749E-16  0.148473801E+01 -0.135371829E+04
    11
 # iter = 29750  time[fs]=29.75000
   N -0.168879842E+01 -0.257928476E+01  0.249799837E+01
   N  0.168879842E+01 -0.257928476E+01  0.249799837E+01
   C -0.138663320E+01  0.242897239E+01  0.250134125E+01
   C  0.138663320E+01  0.242897239E+01  0.250134125E+01
   C -0.282882318E+01 -0.291742406E+00  0.249722227E+01
   C  0.282882318E+01 -0.291742406E+00  0.249722227E+01
   H -0.696843301E+01  0.107970700E+02  0.246935423E+01
   H  0.696843301E+01  0.107970700E+02  0.246935423E+01
   H -0.115294844E+02 -0.186679800E+01  0.257612774E+01
   H  0.115294844E+02 -0.186679800E+01  0.257612774E+01
  Xx  0.220256737E-16  0.148676092E+01 -0.136535997E+04
    11
 # iter = 30000  time[fs]=30.00000
   N -0.170012298E+01 -0.259048752E+01  0.249792059E+01
   N  0.170012298E+01 -0.259048752E+01  0.249792059E+01
   C -0.138982004E+01  0.243923340E+01  0.250127445E+01
   C  0.138982004E+01  0.243923340E+01  0.250127445E+01
   C -0.284188087E+01 -0.296613777E+00  0.249732968E+01
   C  0.284188087E+01 -0.296613777E+00  0.249732968E+01
   H -0.703246785E+01  0.108938755E+02  0.246902199E+01
   H  0.703246785E+01  0.108938755E+02  0.246902199E+01
   H -0.116360178E+02 -0.189090237E+01  0.257695601E+01
   H  0.116360178E+02 -0.189090237E+01  0.257695601E+01
  Xx  0.222125753E-16  0.148878384E+01 -0.137700165E+04
    11
 # iter = 30250  time[fs]=30.25000
   N -0.171152231E+01 -0.260160509E+01  0.249785774E+01
   N  0.171152231E+01 -0.260160509E+01  0.249785774E+01
   C -0.139296952E+01  0.244948084E+01  0.250120052E+01
   C  0.139296952E+01  0.244948084E+01  0.250120052E+01
   C -0.285487517E+01 -0.301555162E+00  0.249742104E+01
   C  0.285487517E+01 -0.301555162E+00  0.249742104E+01
   H -0.709661271E+01  0.109908407E+02  0.246868919E+01
   H  0.709661271E+01  0.109908407E+02  0.246868919E+01
   H -0.117427503E+02 -0.191508786E+01  0.257778587E+01
   H  0.117427503E+02 -0.191508786E+01  0.257778587E+01
  Xx  0.223994753E-16  0.149080675E+01 -0.138864333E+04
    11
 # iter = 30500  time[fs]=30.50000
   N -0.172297485E+01 -0.261263831E+01  0.249779880E+01
   N  0.172297485E+01 -0.261263831E+01  0.249779880E+01
   C -0.139608650E+01  0.245972534E+01  0.250114610E+01
   C  0.139608650E+01  0.245972534E+01  0.250114610E+01
   C -0.286784459E+01 -0.306525249E+00  0.249750654E+01
   C  0.286784459E+01 -0.306525249E+00  0.249750654E+01
   H -0.716086554E+01  0.110879627E+02  0.246835602E+01
   H  0.716086554E+01  0.110879627E+02  0.246835602E+01
   H -0.118496780E+02 -0.193935216E+01  0.257861751E+01
   H  0.118496780E+02 -0.193935216E+01  0.257861751E+01
  Xx  0.225863718E-16  0.149282967E+01 -0.140028501E+04
    11
 # iter = 30750  time[fs]=30.75000
   N -0.173449064E+01 -0.262359543E+01  0.249774220E+01
   N  0.173449064E+01 -0.262359543E+01  0.249774220E+01
   C -0.139916227E+01  0.246995638E+01  0.250108181E+01
   C  0.139916227E+01  0.246995638E+01  0.250108181E+01
   C -0.288077991E+01 -0.311550386E+00  0.249759394E+01
   C  0.288077991E+01 -0.311550386E+00  0.249759394E+01
   H -0.722522480E+01  0.111852391E+02  0.246802237E+01
   H  0.722522480E+01  0.111852391E+02  0.246802237E+01
   H -0.119567968E+02 -0.196369310E+01  0.257945083E+01
   H  0.119567968E+02 -0.196369310E+01  0.257945083E+01
  Xx  0.227732759E-16  0.149485258E+01 -0.141192669E+04
    11
 # iter = 31000  time[fs]=31.00000
   N -0.174604345E+01 -0.263449973E+01  0.249768785E+01
   N  0.174604345E+01 -0.263449973E+01  0.249768785E+01
   C -0.140220923E+01  0.248018506E+01  0.250102125E+01
   C  0.140220923E+01  0.248018506E+01  0.250102125E+01
   C -0.289367420E+01 -0.316627185E+00  0.249767028E+01
   C  0.289367420E+01 -0.316627185E+00  0.249767028E+01
   H -0.728968886E+01  0.112826667E+02  0.246768836E+01
   H  0.728968886E+01  0.112826667E+02  0.246768836E+01
   H -0.120641028E+02 -0.198810965E+01  0.258028582E+01
   H  0.120641028E+02 -0.198810965E+01  0.258028582E+01
  Xx  0.229601884E-16  0.149687550E+01 -0.142356837E+04
    11
 # iter = 31250  time[fs]=31.25000
   N -0.175762269E+01 -0.264537089E+01  0.249762407E+01
   N  0.175762269E+01 -0.264537089E+01  0.249762407E+01
   C -0.140520417E+01  0.249041974E+01  0.250097847E+01
   C  0.140520417E+01  0.249041974E+01  0.250097847E+01
   C -0.290654594E+01 -0.321755849E+00  0.249775620E+01
   C  0.290654594E+01 -0.321755849E+00  0.249775620E+01
   H -0.735425603E+01  0.113802433E+02  0.246735416E+01
   H  0.735425603E+01  0.113802433E+02  0.246735416E+01
   H -0.121715921E+02 -0.201260072E+01  0.258112255E+01
   H  0.121715921E+02 -0.201260072E+01  0.258112255E+01
  Xx  0.231471057E-16  0.149889841E+01 -0.143521005E+04
    11
 # iter = 31500  time[fs]=31.50000
   N -0.176921326E+01 -0.265621627E+01  0.249755918E+01
   N  0.176921326E+01 -0.265621627E+01  0.249755918E+01
   C -0.140815386E+01  0.250064209E+01  0.250092456E+01
   C  0.140815386E+01  0.250064209E+01  0.250092456E+01
   C -0.291938239E+01 -0.326953614E+00  0.249784405E+01
   C  0.291938239E+01 -0.326953614E+00  0.249784405E+01
   H -0.741892546E+01  0.114779661E+02  0.246701936E+01
   H  0.741892546E+01  0.114779661E+02  0.246701936E+01
   H -0.122792606E+02 -0.203716504E+01  0.258196062E+01
   H  0.122792606E+02 -0.203716504E+01  0.258196062E+01
  Xx  0.233340311E-16  0.150092133E+01 -0.144685173E+04
    11
 # iter = 31750  time[fs]=31.75000
   N -0.178081738E+01 -0.266705054E+01  0.249749229E+01
   N  0.178081738E+01 -0.266705054E+01  0.249749229E+01
   C -0.141106428E+01  0.251086274E+01  0.250087985E+01
   C  0.141106428E+01  0.251086274E+01  0.250087985E+01
   C -0.293219576E+01 -0.332177028E+00  0.249792688E+01
   C  0.293219576E+01 -0.332177028E+00  0.249792688E+01
   H -0.748369516E+01  0.115758319E+02  0.246668403E+01
   H  0.748369516E+01  0.115758319E+02  0.246668403E+01
   H -0.123871068E+02 -0.206180096E+01  0.258280020E+01
   H  0.123871068E+02 -0.206180096E+01  0.258280020E+01
  Xx  0.235209636E-16  0.150294424E+01 -0.145849341E+04
    11
 # iter = 32000  time[fs]=32.00000
   N -0.179240137E+01 -0.267790190E+01  0.249742911E+01
   N  0.179240137E+01 -0.267790190E+01  0.249742911E+01
   C -0.141391231E+01  0.252109136E+01  0.250084249E+01
   C  0.141391231E+01  0.252109136E+01  0.250084249E+01
   C -0.294497230E+01 -0.337487437E+00  0.249801084E+01
   C  0.294497230E+01 -0.337487437E+00  0.249801084E+01
   H -0.754856359E+01  0.116738395E+02  0.246634812E+01
   H  0.754856359E+01  0.116738395E+02  0.246634812E+01
   H -0.124951287E+02 -0.208650941E+01  0.258364115E+01
   H  0.124951287E+02 -0.208650941E+01  0.258364115E+01
  Xx  0.237078930E-16  0.150496716E+01 -0.147013509E+04
    11
 # iter = 32250  time[fs]=32.25000
   N -0.180397842E+01 -0.268875486E+01  0.249736822E+01
   N  0.180397842E+01 -0.268875486E+01  0.249736822E+01
   C -0.141670384E+01  0.253131072E+01  0.250079346E+01
   C  0.141670384E+01  0.253131072E+01  0.250079346E+01
   C -0.295771055E+01 -0.342833753E+00  0.249809375E+01
   C  0.295771055E+01 -0.342833753E+00  0.249809375E+01
   H -0.761352694E+01  0.117719851E+02  0.246601128E+01
   H  0.761352694E+01  0.117719851E+02  0.246601128E+01
   H -0.126033238E+02 -0.211128662E+01  0.258448328E+01
   H  0.126033238E+02 -0.211128662E+01  0.258448328E+01
  Xx  0.238948254E-16  0.150699007E+01 -0.148177676E+04
    11
 # iter = 32500  time[fs]=32.50000
   N -0.181553766E+01 -0.269960293E+01  0.249732166E+01
   N  0.181553766E+01 -0.269960293E+01  0.249732166E+01
   C -0.141943004E+01  0.254154484E+01  0.250075461E+01
   C  0.141943004E+01  0.254154484E+01  0.250075461E+01
   C -0.297042555E+01 -0.348237090E+00  0.249815534E+01
   C  0.297042555E+01 -0.348237090E+00  0.249815534E+01
   H -0.767858170E+01  0.118702645E+02  0.246567333E+01
   H  0.767858170E+01  0.118702645E+02  0.246567333E+01
   H -0.127116897E+02 -0.213613042E+01  0.258532652E+01
   H  0.127116897E+02 -0.213613042E+01  0.258532652E+01
  Xx  0.240817623E-16  0.150901299E+01 -0.149341844E+04
    11
 # iter = 32750  time[fs]=32.75000
   N -0.182705164E+01 -0.271045860E+01  0.249728158E+01
   N  0.182705164E+01 -0.271045860E+01  0.249728158E+01
   C -0.142208599E+01  0.255178647E+01  0.250070781E+01
   C  0.142208599E+01  0.255178647E+01  0.250070781E+01
   C -0.298310228E+01 -0.353709534E+00  0.249823318E+01
   C  0.298310228E+01 -0.353709534E+00  0.249823318E+01
   H -0.774372673E+01  0.119686766E+02  0.246533427E+01
   H  0.774372673E+01  0.119686766E+02  0.246533427E+01
   H -0.128202239E+02 -0.216104097E+01  0.258617087E+01
   H  0.128202239E+02 -0.216104097E+01  0.258617087E+01
  Xx  0.242687027E-16  0.151103590E+01 -0.150506012E+04
    11
 # iter = 33000  time[fs]=33.00000
   N -0.183852341E+01 -0.272129249E+01  0.249725155E+01
   N  0.183852341E+01 -0.272129249E+01  0.249725155E+01
   C -0.142467260E+01  0.256202795E+01  0.250065626E+01
   C  0.142467260E+01  0.256202795E+01  0.250065626E+01
   C -0.299575447E+01 -0.359240527E+00  0.249829832E+01
   C  0.299575447E+01 -0.359240527E+00  0.249829832E+01
   H -0.780896061E+01  0.120672181E+02  0.246499414E+01
   H  0.780896061E+01  0.120672181E+02  0.246499414E+01
   H -0.129289232E+02 -0.218601616E+01  0.258701633E+01
   H  0.129289232E+02 -0.218601616E+01  0.258701633E+01
  Xx  0.244556444E-16  0.151305882E+01 -0.151670180E+04
    11
 # iter = 33250  time[fs]=33.25000
   N -0.184996083E+01 -0.273210064E+01  0.249721657E+01
   N  0.184996083E+01 -0.273210064E+01  0.249721657E+01
   C -0.142720948E+01  0.257228408E+01  0.250061411E+01
   C  0.142720948E+01  0.257228408E+01  0.250061411E+01
   C -0.300838546E+01 -0.364848414E+00  0.249837550E+01
   C  0.300838546E+01 -0.364848414E+00  0.249837550E+01
   H -0.787428330E+01  0.121658883E+02  0.246465348E+01
   H  0.787428330E+01  0.121658883E+02  0.246465348E+01
   H -0.130377839E+02 -0.221105508E+01  0.258786290E+01
   H  0.130377839E+02 -0.221105508E+01  0.258786290E+01
  Xx  0.246425793E-16  0.151508173E+01 -0.152834348E+04
    11
 # iter = 33500  time[fs]=33.50000
   N -0.186136617E+01 -0.274287448E+01  0.249717917E+01
   N  0.186136617E+01 -0.274287448E+01  0.249717917E+01
   C -0.142967754E+01  0.258253870E+01  0.250056536E+01
   C  0.142967754E+01  0.258253870E+01  0.250056536E+01
   C -0.302098949E+01 -0.370516885E+00  0.249846522E+01
   C  0.302098949E+01 -0.370516885E+00  0.249846522E+01
   H -0.793969481E+01  0.122646873E+02  0.246431221E+01
   H  0.793969481E+01  0.122646873E+02  0.246431221E+01
   H -0.131468026E+02 -0.223615777E+01  0.258871087E+01
   H  0.131468026E+02 -0.223615777E+01  0.258871087E+01
  Xx  0.248295056E-16  0.151710465E+01 -0.153998516E+04
    11
 # iter = 33750  time[fs]=33.75000
   N -0.187275392E+01 -0.275361002E+01  0.249713293E+01
   N  0.187275392E+01 -0.275361002E+01  0.249713293E+01
   C -0.143210395E+01  0.259279589E+01  0.250051450E+01
   C  0.143210395E+01  0.259279589E+01  0.250051450E+01
   C -0.303355123E+01 -0.376278443E+00  0.249855428E+01
   C  0.303355123E+01 -0.376278443E+00  0.249855428E+01
   H -0.800519456E+01  0.123636133E+02  0.246397044E+01
   H  0.800519456E+01  0.123636133E+02  0.246397044E+01
   H -0.132559763E+02 -0.226132434E+01  0.258955997E+01
   H  0.132559763E+02 -0.226132434E+01  0.258955997E+01
  Xx  0.250164290E-16  0.151912756E+01 -0.155162684E+04
    11
 # iter = 34000  time[fs]=34.00000
   N -0.188415280E+01 -0.276429424E+01  0.249708690E+01
   N  0.188415280E+01 -0.276429424E+01  0.249708690E+01
   C -0.143448081E+01  0.260303874E+01  0.250047923E+01
   C  0.143448081E+01  0.260303874E+01  0.250047923E+01
   C -0.304608815E+01 -0.382086238E+00  0.249865583E+01
   C  0.304608815E+01 -0.382086238E+00  0.249865583E+01
   H -0.807077971E+01  0.124626627E+02  0.246362836E+01
   H  0.807077971E+01  0.124626627E+02  0.246362836E+01
   H -0.133653019E+02 -0.228655196E+01  0.259041048E+01
   H  0.133653019E+02 -0.228655196E+01  0.259041048E+01
  Xx  0.252033564E-16  0.152115048E+01 -0.156326852E+04
    11
 # iter = 34250  time[fs]=34.25000
   N -0.189558439E+01 -0.277492804E+01  0.249704171E+01
   N  0.189558439E+01 -0.277492804E+01  0.249704171E+01
   C -0.143680302E+01  0.261328230E+01  0.250043451E+01
   C  0.143680302E+01  0.261328230E+01  0.250043451E+01
   C -0.305857143E+01 -0.387954903E+00  0.249875837E+01
   C  0.305857143E+01 -0.387954903E+00  0.249875837E+01
   H -0.813644924E+01  0.125618324E+02  0.246328586E+01
   H  0.813644924E+01  0.125618324E+02  0.246328586E+01
   H -0.134747784E+02 -0.231184025E+01  0.259126228E+01
   H  0.134747784E+02 -0.231184025E+01  0.259126228E+01
  Xx  0.253902941E-16  0.152317339E+01 -0.157491020E+04
    11
 # iter = 34500  time[fs]=34.50000
   N -0.190706847E+01 -0.278551117E+01  0.249700721E+01
   N  0.190706847E+01 -0.278551117E+01  0.249700721E+01
   C -0.143907935E+01  0.262352299E+01  0.250038892E+01
   C  0.143907935E+01  0.262352299E+01  0.250038892E+01
   C -0.307100793E+01 -0.393892657E+00  0.249884416E+01
   C  0.307100793E+01 -0.393892657E+00  0.249884416E+01
   H -0.820220115E+01  0.126611209E+02  0.246294291E+01
   H  0.820220115E+01  0.126611209E+02  0.246294291E+01
   H -0.135844040E+02 -0.233718838E+01  0.259211538E+01
   H  0.135844040E+02 -0.233718838E+01  0.259211538E+01
  Xx  0.255772443E-16  0.152519631E+01 -0.158655188E+04
    11
 # iter = 34750  time[fs]=34.75000
   N -0.191863263E+01 -0.279602544E+01  0.249697992E+01
   N  0.191863263E+01 -0.279602544E+01  0.249697992E+01
   C -0.144129650E+01  0.263375226E+01  0.250035618E+01
   C  0.144129650E+01  0.263375226E+01  0.250035618E+01
   C -0.308339469E+01 -0.399879507E+00  0.249893321E+01
   C  0.308339469E+01 -0.399879507E+00  0.249893321E+01
   H -0.826803300E+01  0.127605250E+02  0.246259964E+01
   H  0.826803300E+01  0.127605250E+02  0.246259964E+01
   H -0.136941762E+02 -0.236259434E+01  0.259297007E+01
   H  0.136941762E+02 -0.236259434E+01  0.259297007E+01
  Xx  0.257642114E-16  0.152721922E+01 -0.159819356E+04
    11
 # iter = 35000  time[fs]=35.00000
   N -0.193027342E+01 -0.280646178E+01  0.249696550E+01
   N  0.193027342E+01 -0.280646178E+01  0.249696550E+01
   C -0.144345893E+01  0.264397575E+01  0.250031227E+01
   C  0.144345893E+01  0.264397575E+01  0.250031227E+01
   C -0.309573021E+01 -0.405955829E+00  0.249899508E+01
   C  0.309573021E+01 -0.405955829E+00  0.249899508E+01
   H -0.833394478E+01  0.128600446E+02  0.246225570E+01
   H  0.833394478E+01  0.128600446E+02  0.246225570E+01
   H -0.138040927E+02 -0.238805873E+01  0.259382611E+01
   H  0.138040927E+02 -0.238805873E+01  0.259382611E+01
  Xx  0.259511940E-16  0.152924214E+01 -0.160983524E+04
    11
 # iter = 35250  time[fs]=35.25000
   N -0.194200749E+01 -0.281681793E+01  0.249696230E+01
   N  0.194200749E+01 -0.281681793E+01  0.249696230E+01
   C -0.144557609E+01  0.265420048E+01  0.250027732E+01
   C  0.144557609E+01  0.265420048E+01  0.250027732E+01
   C -0.310802512E+01 -0.412098752E+00  0.249904867E+01
   C  0.310802512E+01 -0.412098752E+00  0.249904867E+01
   H -0.839993651E+01  0.129596797E+02  0.246191123E+01
   H  0.839993651E+01  0.129596797E+02  0.246191123E+01
   H -0.139141509E+02 -0.241358137E+01  0.259468338E+01
   H  0.139141509E+02 -0.241358137E+01  0.259468338E+01
  Xx  0.261381946E-16  0.153126505E+01 -0.162147692E+04
    11
 # iter = 35500  time[fs]=35.50000
   N -0.195381972E+01 -0.282709047E+01  0.249697345E+01
   N  0.195381972E+01 -0.282709047E+01  0.249697345E+01
   C -0.144763838E+01  0.266441350E+01  0.250024261E+01
   C  0.144763838E+01  0.266441350E+01  0.250024261E+01
   C -0.312027173E+01 -0.418353632E+00  0.249910163E+01
   C  0.312027173E+01 -0.418353632E+00  0.249910163E+01
   H -0.846600817E+01  0.130594290E+02  0.246156621E+01
   H  0.846600817E+01  0.130594290E+02  0.246156621E+01
   H -0.140243476E+02 -0.243916217E+01  0.259554167E+01
   H  0.140243476E+02 -0.243916217E+01  0.259554167E+01
  Xx  0.263252174E-16  0.153328797E+01 -0.163311860E+04
    11
 # iter = 35750  time[fs]=35.75000
   N -0.196571093E+01 -0.283727466E+01  0.249698650E+01
   N  0.196571093E+01 -0.283727466E+01  0.249698650E+01
   C -0.144965907E+01  0.267462301E+01  0.250020023E+01
   C  0.144965907E+01  0.267462301E+01  0.250020023E+01
   C -0.313249673E+01 -0.424673649E+00  0.249913755E+01
   C  0.313249673E+01 -0.424673649E+00  0.249913755E+01
   H -0.853215962E+01  0.131592895E+02  0.246122042E+01
   H  0.853215962E+01  0.131592895E+02  0.246122042E+01
   H -0.141346793E+02 -0.246479945E+01  0.259640098E+01
   H  0.141346793E+02 -0.246479945E+01  0.259640098E+01
  Xx  0.265122597E-16  0.153531088E+01 -0.164476028E+04
    11
 # iter = 36000  time[fs]=36.00000
   N -0.197765282E+01 -0.284737295E+01  0.249699341E+01
   N  0.197765282E+01 -0.284737295E+01  0.249699341E+01
   C -0.145163117E+01  0.268483533E+01  0.250016689E+01
   C  0.145163117E+01  0.268483533E+01  0.250016689E+01
   C -0.314469706E+01 -0.431106760E+00  0.249919404E+01
   C  0.314469706E+01 -0.431106760E+00  0.249919404E+01
   H -0.859838900E+01  0.132592610E+02  0.246087411E+01
   H  0.859838900E+01  0.132592610E+02  0.246087411E+01
   H -0.142451443E+02 -0.249049333E+01  0.259726129E+01
   H  0.142451443E+02 -0.249049333E+01  0.259726129E+01
  Xx  0.266993198E-16  0.153733380E+01 -0.165640196E+04
    11
 # iter = 36250  time[fs]=36.25000
   N -0.198963222E+01 -0.285739793E+01  0.249699841E+01
   N  0.198963222E+01 -0.285739793E+01  0.249699841E+01
   C -0.145355564E+01  0.269503719E+01  0.250013020E+01
   C  0.145355564E+01  0.269503719E+01  0.250013020E+01
   C -0.315687738E+01 -0.437639320E+00  0.249925858E+01
   C  0.315687738E+01 -0.437639320E+00  0.249925858E+01
   H -0.866469496E+01  0.133593414E+02  0.246052717E+01
   H  0.866469496E+01  0.133593414E+02  0.246052717E+01
   H -0.143557406E+02 -0.251624258E+01  0.259812260E+01
   H  0.143557406E+02 -0.251624258E+01  0.259812260E+01
  Xx  0.268864062E-16  0.153935671E+01 -0.166804364E+04
    11
 # iter = 36500  time[fs]=36.50000
   N -0.200163851E+01 -0.286734699E+01  0.249699603E+01
   N  0.200163851E+01 -0.286734699E+01  0.249699603E+01
   C -0.145542739E+01  0.270524977E+01  0.250008758E+01
   C  0.145542739E+01  0.270524977E+01  0.250008758E+01
   C -0.316905510E+01 -0.444257334E+00  0.249932151E+01
   C  0.316905510E+01 -0.444257334E+00  0.249932151E+01
   H -0.873107642E+01  0.134595285E+02  0.246017963E+01
   H  0.873107642E+01  0.134595285E+02  0.246017963E+01
   H -0.144664657E+02 -0.254204537E+01  0.259898482E+01
   H  0.144664657E+02 -0.254204537E+01  0.259898482E+01
  Xx  0.270735188E-16  0.154137963E+01 -0.167968532E+04
    11
 # iter = 36750  time[fs]=36.75000
   N -0.201365271E+01 -0.287724962E+01  0.249698738E+01
   N  0.201365271E+01 -0.287724962E+01  0.249698738E+01
   C -0.145725812E+01  0.271544723E+01  0.250005245E+01
   C  0.145725812E+01  0.271544723E+01  0.250005245E+01
   C -0.318120806E+01 -0.450981448E+00  0.249941814E+01
   C  0.318120806E+01 -0.450981448E+00  0.249941814E+01
   H -0.879753271E+01  0.135598214E+02  0.245983170E+01
   H  0.879753271E+01  0.135598214E+02  0.245983170E+01
   H -0.145773191E+02 -0.256790181E+01  0.259984835E+01
   H  0.145773191E+02 -0.256790181E+01  0.259984835E+01
  Xx  0.272606609E-16  0.154340254E+01 -0.169132699E+04
    11
 # iter = 37000  time[fs]=37.00000
   N -0.202566322E+01 -0.288711606E+01  0.249698045E+01
   N  0.202566322E+01 -0.288711606E+01  0.249698045E+01
   C -0.145903149E+01  0.272565701E+01  0.250000924E+01
   C  0.145903149E+01  0.272565701E+01  0.250000924E+01
   C -0.319335213E+01 -0.457781035E+00  0.249951057E+01
   C  0.319335213E+01 -0.457781035E+00  0.249951057E+01
   H -0.886406052E+01  0.136602168E+02  0.245948323E+01
   H  0.886406052E+01  0.136602168E+02  0.245948323E+01
   H -0.146882973E+02 -0.259381060E+01  0.260071290E+01
   H  0.146882973E+02 -0.259381060E+01  0.260071290E+01
  Xx  0.274478341E-16  0.154542546E+01 -0.170296867E+04
    11
 # iter = 37250  time[fs]=37.25000
   N -0.203767558E+01 -0.289697617E+01  0.249697933E+01
   N  0.203767558E+01 -0.289697617E+01  0.249697933E+01
   C -0.146076590E+01  0.273585230E+01  0.249996678E+01
   C  0.146076590E+01  0.273585230E+01  0.249996678E+01
   C -0.320546384E+01 -0.464685852E+00  0.249960228E+01
   C  0.320546384E+01 -0.464685852E+00  0.249960228E+01
   H -0.893065939E+01  0.137607143E+02  0.245913421E+01
   H  0.893065939E+01  0.137607143E+02  0.245913421E+01
   H -0.147993999E+02 -0.261977131E+01  0.260157864E+01
   H  0.147993999E+02 -0.261977131E+01  0.260157864E+01
  Xx  0.276350438E-16  0.154744837E+01 -0.171461035E+04
    11
 # iter = 37500  time[fs]=37.50000
   N -0.204968449E+01 -0.290684074E+01  0.249698077E+01
   N  0.204968449E+01 -0.290684074E+01  0.249698077E+01
   C -0.146245271E+01  0.274604764E+01  0.249992599E+01
   C  0.146245271E+01  0.274604764E+01  0.249992599E+01
   C -0.321753386E+01 -0.471645073E+00  0.249970341E+01
   C  0.321753386E+01 -0.471645073E+00  0.249970341E+01
   H -0.899732931E+01  0.138613107E+02  0.245878484E+01
   H  0.899732931E+01  0.138613107E+02  0.245878484E+01
   H -0.149106255E+02 -0.264578237E+01  0.260244548E+01
   H  0.149106255E+02 -0.264578237E+01  0.260244548E+01
  Xx  0.278222730E-16  0.154947129E+01 -0.172625203E+04
    11
 # iter = 37750  time[fs]=37.75000
   N -0.206168415E+01 -0.291674165E+01  0.249700040E+01
   N  0.206168415E+01 -0.291674165E+01  0.249700040E+01
   C -0.146409663E+01  0.275623588E+01  0.249987933E+01
   C  0.146409663E+01  0.275623588E+01  0.249987933E+01
   C -0.322957156E+01 -0.478698238E+00  0.249978071E+01
   C  0.322957156E+01 -0.478698238E+00  0.249978071E+01
   H -0.906406900E+01  0.139620048E+02  0.245843491E+01
   H  0.906406900E+01  0.139620048E+02  0.245843491E+01
   H -0.150219712E+02 -0.267184368E+01  0.260331344E+01
   H  0.150219712E+02 -0.267184368E+01  0.260331344E+01
  Xx  0.280095007E-16  0.155149420E+01 -0.173789371E+04
    11
 # iter = 38000  time[fs]=38.00000
   N -0.207365938E+01 -0.292667139E+01  0.249702621E+01
   N  0.207365938E+01 -0.292667139E+01  0.249702621E+01
   C -0.146569661E+01  0.276641558E+01  0.249983721E+01
   C  0.146569661E+01  0.276641558E+01  0.249983721E+01
   C -0.324156233E+01 -0.485814261E+00  0.249987079E+01
   C  0.324156233E+01 -0.485814261E+00  0.249987079E+01
   H -0.913087543E+01  0.140627956E+02  0.245808459E+01
   H  0.913087543E+01  0.140627956E+02  0.245808459E+01
   H -0.151334366E+02 -0.269795370E+01  0.260418251E+01
   H  0.151334366E+02 -0.269795370E+01  0.260418251E+01
  Xx  0.281967070E-16  0.155351712E+01 -0.174953539E+04
    11
 # iter = 38250  time[fs]=38.25000
   N -0.208561782E+01 -0.293662707E+01  0.249706603E+01
   N  0.208561782E+01 -0.293662707E+01  0.249706603E+01
   C -0.146724494E+01  0.277658171E+01  0.249979628E+01
   C  0.146724494E+01  0.277658171E+01  0.249979628E+01
   C -0.325352760E+01 -0.492981736E+00  0.249994476E+01
   C  0.325352760E+01 -0.492981736E+00  0.249994476E+01
   H -0.919774847E+01  0.141636798E+02  0.245773365E+01
   H  0.919774847E+01  0.141636798E+02  0.245773365E+01
   H -0.152450190E+02 -0.272411123E+01  0.260505269E+01
   H  0.152450190E+02 -0.272411123E+01  0.260505269E+01
  Xx  0.283838907E-16  0.155554003E+01 -0.176117707E+04
    11
 # iter = 38500  time[fs]=38.50000
   N -0.209754125E+01 -0.294660422E+01  0.249711320E+01
   N  0.209754125E+01 -0.294660422E+01  0.249711320E+01
   C -0.146875765E+01  0.278674670E+01  0.249974500E+01
   C  0.146875765E+01  0.278674670E+01  0.249974500E+01
   C -0.326544950E+01 -0.500235158E+00  0.250001297E+01
   C  0.326544950E+01 -0.500235158E+00  0.250001297E+01
   H -0.926468813E+01  0.142646573E+02  0.245738207E+01
   H  0.926468813E+01  0.142646573E+02  0.245738207E+01
   H -0.153567168E+02 -0.275031632E+01  0.260592385E+01
   H  0.153567168E+02 -0.275031632E+01  0.260592385E+01
  Xx  0.285710290E-16  0.155756295E+01 -0.177281875E+04
    11
 # iter = 38750  time[fs]=38.75000
   N -0.210943930E+01 -0.295658417E+01  0.249715852E+01
   N  0.210943930E+01 -0.295658417E+01  0.249715852E+01
   C -0.147021332E+01  0.279689331E+01  0.249970404E+01
   C  0.147021332E+01  0.279689331E+01  0.249970404E+01
   C -0.327734883E+01 -0.507548950E+00  0.250009564E+01
   C  0.327734883E+01 -0.507548950E+00  0.250009564E+01
   H -0.933169441E+01  0.143657281E+02  0.245703012E+01
   H  0.933169441E+01  0.143657281E+02  0.245703012E+01
   H -0.154685295E+02 -0.277656827E+01  0.260679602E+01
   H  0.154685295E+02 -0.277656827E+01  0.260679602E+01
  Xx  0.287581299E-16  0.155958586E+01 -0.178446043E+04
    11
 # iter = 39000  time[fs]=39.00000
   N -0.212132310E+01 -0.296656506E+01  0.249720108E+01
   N  0.212132310E+01 -0.296656506E+01  0.249720108E+01
   C -0.147163217E+01  0.280704305E+01  0.249965734E+01
   C  0.147163217E+01  0.280704305E+01  0.249965734E+01
   C -0.328921408E+01 -0.514970740E+00  0.250016757E+01
   C  0.328921408E+01 -0.514970740E+00  0.250016757E+01
   H -0.939876556E+01  0.144668915E+02  0.245667758E+01
   H  0.939876556E+01  0.144668915E+02  0.245667758E+01
   H -0.155804537E+02 -0.280286708E+01  0.260766892E+01
   H  0.155804537E+02 -0.280286708E+01  0.260766892E+01
  Xx  0.289452030E-16  0.156160878E+01 -0.179610211E+04
    11
 # iter = 39250  time[fs]=39.25000
   N -0.213321230E+01 -0.297652088E+01  0.249724205E+01
   N  0.213321230E+01 -0.297652088E+01  0.249724205E+01
   C -0.147299342E+01  0.281718253E+01  0.249960958E+01
   C  0.147299342E+01  0.281718253E+01  0.249960958E+01
   C -0.330106339E+01 -0.522458123E+00  0.250025385E+01
   C  0.330106339E+01 -0.522458123E+00  0.250025385E+01
   H -0.946589891E+01  0.145681444E+02  0.245632473E+01
   H  0.946589891E+01  0.145681444E+02  0.245632473E+01
   H -0.156924885E+02 -0.282921165E+01  0.260854275E+01
   H  0.156924885E+02 -0.282921165E+01  0.260854275E+01
  Xx  0.291322738E-16  0.156363169E+01 -0.180774379E+04
    11
 # iter = 39500  time[fs]=39.50000
   N -0.214511601E+01 -0.298645962E+01  0.249728112E+01
   N  0.214511601E+01 -0.298645962E+01  0.249728112E+01
   C -0.147432176E+01  0.282731588E+01  0.249956184E+01
   C  0.147432176E+01  0.282731588E+01  0.249956184E+01
   C -0.331287658E+01 -0.530052608E+00  0.250034705E+01
   C  0.331287658E+01 -0.530052608E+00  0.250034705E+01
   H -0.953309443E+01  0.146694860E+02  0.245597160E+01
   H  0.953309443E+01  0.146694860E+02  0.245597160E+01
   H -0.158046308E+02 -0.285560257E+01  0.260941750E+01
   H  0.158046308E+02 -0.285560257E+01  0.260941750E+01
  Xx  0.293193432E-16  0.156565461E+01 -0.181938547E+04
    11
 # iter = 39750  time[fs]=39.75000
   N -0.215707441E+01 -0.299637143E+01  0.249731586E+01
   N  0.215707441E+01 -0.299637143E+01  0.249731586E+01
   C -0.147558776E+01  0.283745061E+01  0.249951456E+01
   C  0.147558776E+01  0.283745061E+01  0.249951456E+01
   C -0.332467809E+01 -0.537721958E+00  0.250043614E+01
   C  0.332467809E+01 -0.537721958E+00  0.250043614E+01
   H -0.960035213E+01  0.147709165E+02  0.245561847E+01
   H  0.960035213E+01  0.147709165E+02  0.245561847E+01
   H -0.159168797E+02 -0.288203874E+01  0.261029336E+01
   H  0.159168797E+02 -0.288203874E+01  0.261029336E+01
  Xx  0.295064183E-16  0.156767752E+01 -0.183102715E+04
    11
 # iter = 40000  time[fs]=40.00000
   N -0.216908481E+01 -0.300623769E+01  0.249734926E+01
   N  0.216908481E+01 -0.300623769E+01  0.249734926E+01
   C -0.147682427E+01  0.284757475E+01  0.249946082E+01
   C  0.147682427E+01  0.284757475E+01  0.249946082E+01
   C -0.333644315E+01 -0.545485112E+00  0.250053982E+01
   C  0.333644315E+01 -0.545485112E+00  0.250053982E+01
   H -0.966767200E+01  0.148724356E+02  0.245526534E+01
   H  0.966767200E+01  0.148724356E+02  0.245526534E+01
   H -0.160292343E+02 -0.290851933E+01  0.261117033E+01
   H  0.160292343E+02 -0.290851933E+01  0.261117033E+01
  Xx  0.296935121E-16  0.156970044E+01 -0.184266883E+04
    11
 # iter = 40250  time[fs]=40.25000
   N -0.218117823E+01 -0.301606266E+01  0.249738650E+01
   N  0.218117823E+01 -0.301606266E+01  0.249738650E+01
   C -0.147800288E+01  0.285769309E+01  0.249941520E+01
   C  0.147800288E+01  0.285769309E+01  0.249941520E+01
   C -0.334818790E+01 -0.553322171E+00  0.250063988E+01
   C  0.334818790E+01 -0.553322171E+00  0.250063988E+01
   H -0.973505404E+01  0.149740405E+02  0.245491215E+01
   H  0.973505404E+01  0.149740405E+02  0.245491215E+01
   H -0.161416947E+02 -0.293504382E+01  0.261204840E+01
   H  0.161416947E+02 -0.293504382E+01  0.261204840E+01
  Xx  0.298806279E-16  0.157172335E+01 -0.185431051E+04
    11
 # iter = 40500  time[fs]=40.50000
   N -0.219335050E+01 -0.302582801E+01  0.249742542E+01
   N  0.219335050E+01 -0.302582801E+01  0.249742542E+01
   C -0.147915238E+01  0.286781947E+01  0.249936308E+01
   C  0.147915238E+01  0.286781947E+01  0.249936308E+01
   C -0.335989798E+01 -0.561244481E+00  0.250073030E+01
   C  0.335989798E+01 -0.561244481E+00  0.250073030E+01
   H -0.980249584E+01  0.150757297E+02  0.245455842E+01
   H  0.980249584E+01  0.150757297E+02  0.245455842E+01
   H -0.162542586E+02 -0.296161160E+01  0.261292724E+01
   H  0.162542586E+02 -0.296161160E+01  0.261292724E+01
  Xx  0.300677547E-16  0.157374627E+01 -0.186595219E+04
    11
 # iter = 40750  time[fs]=40.75000
   N -0.220560750E+01 -0.303552167E+01  0.249747285E+01
   N  0.220560750E+01 -0.303552167E+01  0.249747285E+01
   C -0.148024096E+01  0.287792706E+01  0.249930742E+01
   C  0.148024096E+01  0.287792706E+01  0.249930742E+01
   C -0.337157324E+01 -0.569251098E+00  0.250083212E+01
   C  0.337157324E+01 -0.569251098E+00  0.250083212E+01
   H -0.986999537E+01  0.151775027E+02  0.245420433E+01
   H  0.986999537E+01  0.151775027E+02  0.245420433E+01
   H -0.163669204E+02 -0.298822176E+01  0.261380701E+01
   H  0.163669204E+02 -0.298822176E+01  0.261380701E+01
  Xx  0.302548893E-16  0.157576918E+01 -0.187759387E+04
    11
 # iter = 41000  time[fs]=41.00000
   N -0.221794923E+01 -0.304513365E+01  0.249752251E+01
   N  0.221794923E+01 -0.304513365E+01  0.249752251E+01
   C -0.148130153E+01  0.288805357E+01  0.249925683E+01
   C  0.148130153E+01  0.288805357E+01  0.249925683E+01
   C -0.338321755E+01 -0.577305190E+00  0.250091753E+01
   C  0.338321755E+01 -0.577305190E+00  0.250091753E+01
   H -0.993755263E+01  0.152793562E+02  0.245384992E+01
   H  0.993755263E+01  0.152793562E+02  0.245384992E+01
   H -0.164796799E+02 -0.301487305E+01  0.261468762E+01
   H  0.164796799E+02 -0.301487305E+01  0.261468762E+01
  Xx  0.304420262E-16  0.157779210E+01 -0.188923555E+04
    11
 # iter = 41250  time[fs]=41.25000
   N -0.223036244E+01 -0.305466098E+01  0.249757169E+01
   N  0.223036244E+01 -0.305466098E+01  0.249757169E+01
   C -0.148230471E+01  0.289816997E+01  0.249920237E+01
   C  0.148230471E+01  0.289816997E+01  0.249920237E+01
   C -0.339482590E+01 -0.585458331E+00  0.250101041E+01
   C  0.339482590E+01 -0.585458331E+00  0.250101041E+01
   H -0.100051671E+02  0.153812897E+02  0.245349551E+01
   H  0.100051671E+02  0.153812897E+02  0.245349551E+01
   H -0.165925372E+02 -0.304156521E+01  0.261556934E+01
   H  0.165925372E+02 -0.304156521E+01  0.261556934E+01
  Xx  0.306291626E-16  0.157981501E+01 -0.190087723E+04
    11
 # iter = 41500  time[fs]=41.50000
   N -0.224282872E+01 -0.306408942E+01  0.249762470E+01
   N  0.224282872E+01 -0.306408942E+01  0.249762470E+01
   C -0.148326689E+01  0.290829459E+01  0.249914567E+01
   C  0.148326689E+01  0.290829459E+01  0.249914567E+01
   C -0.340639475E+01 -0.593659481E+00  0.250110339E+01
   C  0.340639475E+01 -0.593659481E+00  0.250110339E+01
   H -0.100728353E+02  0.154833030E+02  0.245314110E+01
   H  0.100728353E+02  0.154833030E+02  0.245314110E+01
   H -0.167054921E+02 -0.306829741E+01  0.261645217E+01
   H  0.167054921E+02 -0.306829741E+01  0.261645217E+01
  Xx  0.308162903E-16  0.158183793E+01 -0.191251890E+04
    11
 # iter = 41750  time[fs]=41.75000
   N -0.225533771E+01 -0.307342589E+01  0.249767758E+01
   N  0.225533771E+01 -0.307342589E+01  0.249767758E+01
   C -0.148417903E+01  0.291842682E+01  0.249908999E+01
   C  0.148417903E+01  0.291842682E+01  0.249908999E+01
   C -0.341793321E+01 -0.601937363E+00  0.250119273E+01
   C  0.341793321E+01 -0.601937363E+00  0.250119273E+01
   H -0.101405569E+02  0.155853949E+02  0.245278669E+01
   H  0.101405569E+02  0.155853949E+02  0.245278669E+01
   H -0.168185447E+02 -0.309506906E+01  0.261733611E+01
   H  0.168185447E+02 -0.309506906E+01  0.261733611E+01
  Xx  0.310034189E-16  0.158386084E+01 -0.192416058E+04
    11
 # iter = 42000  time[fs]=42.00000
   N -0.226786096E+01 -0.308265990E+01  0.249772862E+01
   N  0.226786096E+01 -0.308265990E+01  0.249772862E+01
   C -0.148504705E+01  0.292855501E+01  0.249903045E+01
   C  0.148504705E+01  0.292855501E+01  0.249903045E+01
   C -0.342944342E+01 -0.610283501E+00  0.250130001E+01
   C  0.342944342E+01 -0.610283501E+00  0.250130001E+01
   H -0.102083317E+02  0.156875623E+02  0.245243229E+01
   H  0.102083317E+02  0.156875623E+02  0.245243229E+01
   H -0.169316950E+02 -0.312187952E+01  0.261822116E+01
   H  0.169316950E+02 -0.312187952E+01  0.261822116E+01
  Xx  0.311905410E-16  0.158588376E+01 -0.193580226E+04
    11
 # iter = 42250  time[fs]=42.25000
   N -0.228038244E+01 -0.309180715E+01  0.249778410E+01
   N  0.228038244E+01 -0.309180715E+01  0.249778410E+01
   C -0.148586214E+01  0.293869746E+01  0.249897701E+01
   C  0.148586214E+01  0.293869746E+01  0.249897701E+01
   C -0.344092913E+01 -0.618707116E+00  0.250139850E+01
   C  0.344092913E+01 -0.618707116E+00  0.250139850E+01
   H -0.102761599E+02  0.157898052E+02  0.245207788E+01
   H  0.102761599E+02  0.157898052E+02  0.245207788E+01
   H -0.170449419E+02 -0.314872877E+01  0.261910732E+01
   H  0.170449419E+02 -0.314872877E+01  0.261910732E+01
  Xx  0.313776631E-16  0.158790667E+01 -0.194744394E+04
    11
 # iter = 42500  time[fs]=42.50000
   N -0.229287744E+01 -0.310086959E+01  0.249784091E+01
   N  0.229287744E+01 -0.310086959E+01  0.249784091E+01
   C -0.148663741E+01  0.294884759E+01  0.249891607E+01
   C  0.148663741E+01  0.294884759E+01  0.249891607E+01
   C -0.345239762E+01 -0.627202021E+00  0.250149854E+01
   C  0.345239762E+01 -0.627202021E+00  0.250149854E+01
   H -0.103440413E+02  0.158921235E+02  0.245172347E+01
   H  0.103440413E+02  0.158921235E+02  0.245172347E+01
   H -0.171582789E+02 -0.317561591E+01  0.261999460E+01
   H  0.171582789E+02 -0.317561591E+01  0.261999460E+01
  Xx  0.315647856E-16  0.158992959E+01 -0.195908562E+04
    11
 # iter = 42750  time[fs]=42.75000
   N -0.230534589E+01 -0.310985908E+01  0.249790335E+01
   N  0.230534589E+01 -0.310985908E+01  0.249790335E+01
   C -0.148735416E+01  0.295899167E+01  0.249886083E+01
   C  0.148735416E+01  0.295899167E+01  0.249886083E+01
   C -0.346385837E+01 -0.635771189E+00  0.250159914E+01
   C  0.346385837E+01 -0.635771189E+00  0.250159914E+01
   H -0.104119760E+02  0.159945174E+02  0.245136906E+01
   H  0.104119760E+02  0.159945174E+02  0.245136906E+01
   H -0.172717046E+02 -0.320254056E+01  0.262088298E+01
   H  0.172717046E+02 -0.320254056E+01  0.262088298E+01
  Xx  0.317519174E-16  0.159195250E+01 -0.197072730E+04
    11
 # iter = 43000  time[fs]=43.00000
   N -0.231776765E+01 -0.311878835E+01  0.249797515E+01
   N  0.231776765E+01 -0.311878835E+01  0.249797515E+01
   C -0.148803969E+01  0.296916095E+01  0.249880472E+01
   C  0.148803969E+01  0.296916095E+01  0.249880472E+01
   C -0.347530334E+01 -0.644435762E+00  0.250168599E+01
   C  0.347530334E+01 -0.644435762E+00  0.250168599E+01
   H -0.104799640E+02  0.160969848E+02  0.245101465E+01
   H  0.104799640E+02  0.160969848E+02  0.245101465E+01
   H -0.173852192E+02 -0.322950296E+01  0.262177247E+01
   H  0.173852192E+02 -0.322950296E+01  0.262177247E+01
  Xx  0.319390450E-16  0.159397542E+01 -0.198236898E+04
    11
 # iter = 43250  time[fs]=43.25000
   N -0.233015243E+01 -0.312766791E+01  0.249806004E+01
   N  0.233015243E+01 -0.312766791E+01  0.249806004E+01
   C -0.148866656E+01  0.297931817E+01  0.249875079E+01
   C  0.148866656E+01  0.297931817E+01  0.249875079E+01
   C -0.348673662E+01 -0.653168780E+00  0.250176275E+01
   C  0.348673662E+01 -0.653168780E+00  0.250176275E+01
   H -0.105480053E+02  0.161995233E+02  0.245066025E+01
   H  0.105480053E+02  0.161995233E+02  0.245066025E+01
   H -0.174988226E+02 -0.325650275E+01  0.262266306E+01
   H  0.174988226E+02 -0.325650275E+01  0.262266306E+01
  Xx  0.321261791E-16  0.159599833E+01 -0.199401066E+04
    11
 # iter = 43500  time[fs]=43.50000
   N -0.234251036E+01 -0.313651005E+01  0.249815048E+01
   N  0.234251036E+01 -0.313651005E+01  0.249815048E+01
   C -0.148926233E+01  0.298948622E+01  0.249869122E+01
   C  0.148926233E+01  0.298948622E+01  0.249869122E+01
   C -0.349814975E+01 -0.662011890E+00  0.250183510E+01
   C  0.349814975E+01 -0.662011890E+00  0.250183510E+01
   H -0.106160994E+02  0.163021328E+02  0.245030569E+01
   H  0.106160994E+02  0.163021328E+02  0.245030569E+01
   H -0.176125148E+02 -0.328353919E+01  0.262355430E+01
   H  0.176125148E+02 -0.328353919E+01  0.262355430E+01
  Xx  0.323133189E-16  0.159802125E+01 -0.200565234E+04
    11
 # iter = 43750  time[fs]=43.75000
   N -0.235484781E+01 -0.314532481E+01  0.249825522E+01
   N  0.235484781E+01 -0.314532481E+01  0.249825522E+01
   C -0.148980964E+01  0.299966114E+01  0.249863870E+01
   C  0.148980964E+01  0.299966114E+01  0.249863870E+01
   C -0.350955461E+01 -0.670917305E+00  0.250188720E+01
   C  0.350955461E+01 -0.670917305E+00  0.250188720E+01
   H -0.106842428E+02  0.164048134E+02  0.244995100E+01
   H  0.106842428E+02  0.164048134E+02  0.244995100E+01
   H -0.177262958E+02 -0.331061220E+01  0.262444635E+01
   H  0.177262958E+02 -0.331061220E+01  0.262444635E+01
  Xx  0.325004597E-16  0.160004416E+01 -0.201729402E+04
    11
 # iter = 44000  time[fs]=44.00000
   N -0.236717256E+01 -0.315413314E+01  0.249836021E+01
   N  0.236717256E+01 -0.315413314E+01  0.249836021E+01
   C -0.149031246E+01  0.300982289E+01  0.249858495E+01
   C  0.149031246E+01  0.300982289E+01  0.249858495E+01
   C -0.352091984E+01 -0.679931627E+00  0.250194782E+01
   C  0.352091984E+01 -0.679931627E+00  0.250194782E+01
   H -0.107524352E+02  0.165075650E+02  0.244959622E+01
   H  0.107524352E+02  0.165075650E+02  0.244959622E+01
   H -0.178401652E+02 -0.333772167E+01  0.262533926E+01
   H  0.178401652E+02 -0.333772167E+01  0.262533926E+01
  Xx  0.326875952E-16  0.160206708E+01 -0.202893570E+04
    11
 # iter = 44250  time[fs]=44.25000
   N -0.237951239E+01 -0.316293308E+01  0.249847017E+01
   N  0.237951239E+01 -0.316293308E+01  0.249847017E+01
   C -0.149077273E+01  0.302000202E+01  0.249852858E+01
   C  0.149077273E+01  0.302000202E+01  0.249852858E+01
   C -0.353226720E+01 -0.689021697E+00  0.250199632E+01
   C  0.353226720E+01 -0.689021697E+00  0.250199632E+01
   H -0.108206763E+02  0.166103876E+02  0.244924145E+01
   H  0.108206763E+02  0.166103876E+02  0.244924145E+01
   H -0.179541165E+02 -0.336486629E+01  0.262623294E+01
   H  0.179541165E+02 -0.336486629E+01  0.262623294E+01
  Xx  0.328747302E-16  0.160408999E+01 -0.204057738E+04
    11
 # iter = 44500  time[fs]=44.50000
   N -0.239187660E+01 -0.317173023E+01  0.249857457E+01
   N  0.239187660E+01 -0.317173023E+01  0.249857457E+01
   C -0.149118631E+01  0.303017207E+01  0.249847588E+01
   C  0.149118631E+01  0.303017207E+01  0.249847588E+01
   C -0.354357940E+01 -0.698199407E+00  0.250205307E+01
   C  0.354357940E+01 -0.698199407E+00  0.250205307E+01
   H -0.108889663E+02  0.167132814E+02  0.244888667E+01
   H  0.108889663E+02  0.167132814E+02  0.244888667E+01
   H -0.180681477E+02 -0.339204533E+01  0.262712772E+01
   H  0.180681477E+02 -0.339204533E+01  0.262712772E+01
  Xx  0.330618676E-16  0.160611291E+01 -0.205221906E+04
    11
 # iter = 44750  time[fs]=44.75000
   N -0.240429860E+01 -0.318053175E+01  0.249867284E+01
   N  0.240429860E+01 -0.318053175E+01  0.249867284E+01
   C -0.149154711E+01  0.304033443E+01  0.249842349E+01
   C  0.149154711E+01  0.304033443E+01  0.249842349E+01
   C -0.355485388E+01 -0.707455706E+00  0.250211800E+01
   C  0.355485388E+01 -0.707455706E+00  0.250211800E+01
   H -0.109573051E+02  0.168162459E+02  0.244853190E+01
   H  0.109573051E+02  0.168162459E+02  0.244853190E+01
   H -0.181822588E+02 -0.341925861E+01  0.262802361E+01
   H  0.181822588E+02 -0.341925861E+01  0.262802361E+01
  Xx  0.332490009E-16  0.160813582E+01 -0.206386074E+04
    11
 # iter = 45000  time[fs]=45.00000
   N -0.241678808E+01 -0.318933699E+01  0.249876381E+01
   N  0.241678808E+01 -0.318933699E+01  0.249876381E+01
   C -0.149186497E+01  0.305051341E+01  0.249836726E+01
   C  0.149186497E+01  0.305051341E+01  0.249836726E+01
   C -0.356609250E+01 -0.716800577E+00  0.250219150E+01
   C  0.356609250E+01 -0.716800577E+00  0.250219150E+01
   H -0.110256898E+02  0.169192752E+02  0.244817712E+01
   H  0.110256898E+02  0.169192752E+02  0.244817712E+01
   H -0.182964499E+02 -0.344650530E+01  0.262892062E+01
   H  0.182964499E+02 -0.344650530E+01  0.262892062E+01
  Xx  0.334361285E-16  0.161015874E+01 -0.207550242E+04
    11
 # iter = 45250  time[fs]=45.25000
   N -0.242936317E+01 -0.319814665E+01  0.249884581E+01
   N  0.242936317E+01 -0.319814665E+01  0.249884581E+01
   C -0.149212541E+01  0.306066828E+01  0.249832053E+01
   C  0.149212541E+01  0.306066828E+01  0.249832053E+01
   C -0.357729587E+01 -0.726224417E+00  0.250227143E+01
   C  0.357729587E+01 -0.726224417E+00  0.250227143E+01
   H -0.110941188E+02  0.170223667E+02  0.244782234E+01
   H  0.110941188E+02  0.170223667E+02  0.244782234E+01
   H -0.184107209E+02 -0.347378496E+01  0.262981873E+01
   H  0.184107209E+02 -0.347378496E+01  0.262981873E+01
  Xx  0.336232471E-16  0.161218165E+01 -0.208714410E+04
    11
 # iter = 45500  time[fs]=45.50000
   N -0.244202990E+01 -0.320696092E+01  0.249892331E+01
   N  0.244202990E+01 -0.320696092E+01  0.249892331E+01
   C -0.149234480E+01  0.307083012E+01  0.249826260E+01
   C  0.149234480E+01  0.307083012E+01  0.249826260E+01
   C -0.358845963E+01 -0.735706439E+00  0.250236461E+01
   C  0.358845963E+01 -0.735706439E+00  0.250236461E+01
   H -0.111625923E+02  0.171255204E+02  0.244746757E+01
   H  0.111625923E+02  0.171255204E+02  0.244746757E+01
   H -0.185250718E+02 -0.350109687E+01  0.263071795E+01
   H  0.185250718E+02 -0.350109687E+01  0.263071795E+01
  Xx  0.338103712E-16  0.161420457E+01 -0.209878578E+04
    11
 # iter = 45750  time[fs]=45.75000
   N -0.245478263E+01 -0.321578649E+01  0.249899995E+01
   N  0.245478263E+01 -0.321578649E+01  0.249899995E+01
   C -0.149250396E+01  0.308099145E+01  0.249821215E+01
   C  0.149250396E+01  0.308099145E+01  0.249821215E+01
   C -0.359960016E+01 -0.745295501E+00  0.250245821E+01
   C  0.359960016E+01 -0.745295501E+00  0.250245821E+01
   H -0.112311102E+02  0.172287363E+02  0.244711279E+01
   H  0.112311102E+02  0.172287363E+02  0.244711279E+01
   H -0.186395027E+02 -0.352844106E+01  0.263161818E+01
   H  0.186395027E+02 -0.352844106E+01  0.263161818E+01
  Xx  0.339974848E-16  0.161622748E+01 -0.211042746E+04
    11
 # iter = 46000  time[fs]=46.00000
   N -0.246761513E+01 -0.322461188E+01  0.249907163E+01
   N  0.246761513E+01 -0.322461188E+01  0.249907163E+01
   C -0.149261813E+01  0.309113669E+01  0.249816686E+01
   C  0.149261813E+01  0.309113669E+01  0.249816686E+01
   C -0.361070698E+01 -0.754937057E+00  0.250255828E+01
   C  0.361070698E+01 -0.754937057E+00  0.250255828E+01
   H -0.112996725E+02  0.173320143E+02  0.244675801E+01
   H  0.112996725E+02  0.173320143E+02  0.244675801E+01
   H -0.187540136E+02 -0.355581683E+01  0.263251920E+01
   H  0.187540136E+02 -0.355581683E+01  0.263251920E+01
  Xx  0.341845926E-16  0.161825040E+01 -0.212206914E+04
    11
 # iter = 46250  time[fs]=46.25000
   N -0.248050925E+01 -0.323342922E+01  0.249914691E+01
   N  0.248050925E+01 -0.323342922E+01  0.249914691E+01
   C -0.149268387E+01  0.310129917E+01  0.249810601E+01
   C  0.149268387E+01  0.310129917E+01  0.249810601E+01
   C -0.362178555E+01 -0.764674983E+00  0.250265221E+01
   C  0.362178555E+01 -0.764674983E+00  0.250265221E+01
   H -0.113682792E+02  0.174353545E+02  0.244640324E+01
   H  0.113682792E+02  0.174353545E+02  0.244640324E+01
   H -0.188686043E+02 -0.358322377E+01  0.263342072E+01
   H  0.188686043E+02 -0.358322377E+01  0.263342072E+01
  Xx  0.343717003E-16  0.162027331E+01 -0.213371081E+04
    11
 # iter = 46500  time[fs]=46.50000
   N -0.249345061E+01 -0.324222999E+01  0.249922941E+01
   N  0.249345061E+01 -0.324222999E+01  0.249922941E+01
   C -0.149269646E+01  0.311143913E+01  0.249806100E+01
   C  0.149269646E+01  0.311143913E+01  0.249806100E+01
   C -0.363286192E+01 -0.774479169E+00  0.250274004E+01
   C  0.363286192E+01 -0.774479169E+00  0.250274004E+01
   H -0.114369303E+02  0.175387568E+02  0.244604846E+01
   H  0.114369303E+02  0.175387568E+02  0.244604846E+01
   H -0.189832704E+02 -0.361066179E+01  0.263432289E+01
   H  0.189832704E+02 -0.361066179E+01  0.263432289E+01
  Xx  0.345588081E-16  0.162229623E+01 -0.214535249E+04
    11
 # iter = 46750  time[fs]=46.75000
   N -0.250641068E+01 -0.325100173E+01  0.249932062E+01
   N  0.250641068E+01 -0.325100173E+01  0.249932062E+01
   C -0.149266503E+01  0.312159566E+01  0.249801114E+01
   C  0.149266503E+01  0.312159566E+01  0.249801114E+01
   C -0.364389987E+01 -0.784376548E+00  0.250282072E+01
   C  0.364389987E+01 -0.784376548E+00  0.250282072E+01
   H -0.115056258E+02  0.176422214E+02  0.244569368E+01
   H  0.115056258E+02  0.176422214E+02  0.244569368E+01
   H -0.190980076E+02 -0.363813090E+01  0.263522562E+01
   H  0.190980076E+02 -0.363813090E+01  0.263522562E+01
  Xx  0.347459153E-16  0.162431914E+01 -0.215699417E+04
    11
 # iter = 47000  time[fs]=47.00000
   N -0.251937783E+01 -0.325972285E+01  0.249942037E+01
   N  0.251937783E+01 -0.325972285E+01  0.249942037E+01
   C -0.149258919E+01  0.313174303E+01  0.249795334E+01
   C  0.149258919E+01  0.313174303E+01  0.249795334E+01
   C -0.365493886E+01 -0.794340139E+00  0.250288552E+01
   C  0.365493886E+01 -0.794340139E+00  0.250288552E+01
   H -0.115743645E+02  0.177457481E+02  0.244533891E+01
   H  0.115743645E+02  0.177457481E+02  0.244533891E+01
   H -0.192128158E+02 -0.366563039E+01  0.263612879E+01
   H  0.192128158E+02 -0.366563039E+01  0.263612879E+01
  Xx  0.349330151E-16  0.162634206E+01 -0.216863585E+04
    11
 # iter = 47250  time[fs]=47.25000
   N -0.253233134E+01 -0.326838634E+01  0.249952742E+01
   N  0.253233134E+01 -0.326838634E+01  0.249952742E+01
   C -0.149246667E+01  0.314189037E+01  0.249790852E+01
   C  0.149246667E+01  0.314189037E+01  0.249790852E+01
   C -0.366596046E+01 -0.804376989E+00  0.250295112E+01
   C  0.366596046E+01 -0.804376989E+00  0.250295112E+01
   H -0.116431457E+02  0.178493370E+02  0.244498413E+01
   H  0.116431457E+02  0.178493370E+02  0.244498413E+01
   H -0.193276951E+02 -0.369316002E+01  0.263703272E+01
   H  0.193276951E+02 -0.369316002E+01  0.263703272E+01
  Xx  0.351201218E-16  0.162836497E+01 -0.218027753E+04
    11
 # iter = 47500  time[fs]=47.50000
   N -0.254524325E+01 -0.327697916E+01  0.249964417E+01
   N  0.254524325E+01 -0.327697916E+01  0.249964417E+01
   C -0.149229864E+01  0.315204625E+01  0.249785571E+01
   C  0.149229864E+01  0.315204625E+01  0.249785571E+01
   C -0.367695600E+01 -0.814497022E+00  0.250300246E+01
   C  0.367695600E+01 -0.814497022E+00  0.250300246E+01
   H -0.117119680E+02  0.179529880E+02  0.244462935E+01
   H  0.117119680E+02  0.179529880E+02  0.244462935E+01
   H -0.194426454E+02 -0.372071976E+01  0.263793722E+01
   H  0.194426454E+02 -0.372071976E+01  0.263793722E+01
  Xx  0.353072281E-16  0.163038789E+01 -0.219191921E+04
    11
 # iter = 47750  time[fs]=47.75000
   N -0.255811640E+01 -0.328549678E+01  0.249976085E+01
   N  0.255811640E+01 -0.328549678E+01  0.249976085E+01
   C -0.149209153E+01  0.316220116E+01  0.249780014E+01
   C  0.149209153E+01  0.316220116E+01  0.249780014E+01
   C -0.368795177E+01 -0.824683036E+00  0.250305492E+01
   C  0.368795177E+01 -0.824683036E+00  0.250305492E+01
   H -0.117808303E+02  0.180567013E+02  0.244427458E+01
   H  0.117808303E+02  0.180567013E+02  0.244427458E+01
   H -0.195576668E+02 -0.374830948E+01  0.263884234E+01
   H  0.195576668E+02 -0.374830948E+01  0.263884234E+01
  Xx  0.354943381E-16  0.163241080E+01 -0.220356089E+04
    11
 # iter = 48000  time[fs]=48.00000
   N -0.257093609E+01 -0.329393603E+01  0.249988203E+01
   N  0.257093609E+01 -0.329393603E+01  0.249988203E+01
   C -0.149183428E+01  0.317236080E+01  0.249775653E+01
   C  0.149183428E+01  0.317236080E+01  0.249775653E+01
   C -0.369890309E+01 -0.834943558E+00  0.250310982E+01
   C  0.369890309E+01 -0.834943558E+00  0.250310982E+01
   H -0.118497325E+02  0.181604738E+02  0.244391980E+01
   H  0.118497325E+02  0.181604738E+02  0.244391980E+01
   H -0.196727592E+02 -0.377592863E+01  0.263974827E+01
   H  0.196727592E+02 -0.377592863E+01  0.263974827E+01
  Xx  0.356814450E-16  0.163443372E+01 -0.221520257E+04
    11
 # iter = 48250  time[fs]=48.25000
   N -0.258371166E+01 -0.330229213E+01  0.249999790E+01
   N  0.258371166E+01 -0.330229213E+01  0.249999790E+01
   C -0.149153857E+01  0.318253302E+01  0.249769685E+01
   C  0.149153857E+01  0.318253302E+01  0.249769685E+01
   C -0.370985096E+01 -0.845267468E+00  0.250316921E+01
   C  0.370985096E+01 -0.845267468E+00  0.250316921E+01
   H -0.119186747E+02  0.182642998E+02  0.244356503E+01
   H  0.119186747E+02  0.182642998E+02  0.244356503E+01
   H -0.197879227E+02 -0.380357665E+01  0.264065473E+01
   H  0.197879227E+02 -0.380357665E+01  0.264065473E+01
  Xx  0.358685564E-16  0.163645663E+01 -0.222684425E+04
    11
 # iter = 48500  time[fs]=48.50000
   N -0.259645295E+01 -0.331057191E+01  0.250011068E+01
   N  0.259645295E+01 -0.331057191E+01  0.250011068E+01
   C -0.149119690E+01  0.319270133E+01  0.249764930E+01
   C  0.149119690E+01  0.319270133E+01  0.249764930E+01
   C -0.372075418E+01 -0.855684086E+00  0.250323524E+01
   C  0.372075418E+01 -0.855684086E+00  0.250323524E+01
   H -0.119876569E+02  0.183681791E+02  0.244321025E+01
   H  0.119876569E+02  0.183681791E+02  0.244321025E+01
   H -0.199031573E+02 -0.383125343E+01  0.264156196E+01
   H  0.199031573E+02 -0.383125343E+01  0.264156196E+01
  Xx  0.360556793E-16  0.163847955E+01 -0.223848593E+04
    11
 # iter = 48750  time[fs]=48.75000
   N -0.260917965E+01 -0.331876129E+01  0.250021237E+01
   N  0.260917965E+01 -0.331876129E+01  0.250021237E+01
   C -0.149080573E+01  0.320289112E+01  0.249759757E+01
   C  0.149080573E+01  0.320289112E+01  0.249759757E+01
   C -0.373163423E+01 -0.866139854E+00  0.250331769E+01
   C  0.373163423E+01 -0.866139854E+00  0.250331769E+01
   H -0.120566791E+02  0.184721116E+02  0.244285547E+01
   H  0.120566791E+02  0.184721116E+02  0.244285547E+01
   H -0.200184629E+02 -0.385895814E+01  0.264246989E+01
   H  0.200184629E+02 -0.385895814E+01  0.264246989E+01
  Xx  0.362428175E-16  0.164050246E+01 -0.225012761E+04
    11
 # iter = 49000  time[fs]=49.00000
   N -0.262191800E+01 -0.332686605E+01  0.250030605E+01
   N  0.262191800E+01 -0.332686605E+01  0.250030605E+01
   C -0.149037669E+01  0.321307601E+01  0.249754213E+01
   C  0.149037669E+01  0.321307601E+01  0.249754213E+01
   C -0.374248343E+01 -0.876700231E+00  0.250340303E+01
   C  0.374248343E+01 -0.876700231E+00  0.250340303E+01
   H -0.121257412E+02  0.185760975E+02  0.244250070E+01
   H  0.121257412E+02  0.185760975E+02  0.244250070E+01
   H -0.201338395E+02 -0.388669060E+01  0.264337833E+01
   H  0.201338395E+02 -0.388669060E+01  0.264337833E+01
  Xx  0.364299662E-16  0.164252538E+01 -0.226176929E+04
    11
 # iter = 49250  time[fs]=49.25000
   N -0.263467762E+01 -0.333488438E+01  0.250039107E+01
   N  0.263467762E+01 -0.333488438E+01  0.250039107E+01
   C -0.148989815E+01  0.322327595E+01  0.249749449E+01
   C  0.148989815E+01  0.322327595E+01  0.249749449E+01
   C -0.375329119E+01 -0.887313389E+00  0.250350758E+01
   C  0.375329119E+01 -0.887313389E+00  0.250350758E+01
   H -0.121948433E+02  0.186801367E+02  0.244214592E+01
   H  0.121948433E+02  0.186801367E+02  0.244214592E+01
   H -0.202492845E+02 -0.391445082E+01  0.264428755E+01
   H  0.202492845E+02 -0.391445082E+01  0.264428755E+01
  Xx  0.366171297E-16  0.164454829E+01 -0.227341097E+04
    11
 # iter = 49500  time[fs]=49.50000
   N -0.264748446E+01 -0.334282115E+01  0.250046971E+01
   N  0.264748446E+01 -0.334282115E+01  0.250046971E+01
   C -0.148936930E+01  0.323348057E+01  0.249743984E+01
   C  0.148936930E+01  0.323348057E+01  0.249743984E+01
   C -0.376406779E+01 -0.898020027E+00  0.250360618E+01
   C  0.376406779E+01 -0.898020027E+00  0.250360618E+01
   H -0.122639845E+02  0.187842291E+02  0.244179114E+01
   H  0.122639845E+02  0.187842291E+02  0.244179114E+01
   H -0.203647918E+02 -0.394223868E+01  0.264519716E+01
   H  0.203647918E+02 -0.394223868E+01  0.264519716E+01
  Xx  0.368043085E-16  0.164657121E+01 -0.228505265E+04
    11
 # iter = 49750  time[fs]=49.75000
   N -0.266035058E+01 -0.335066612E+01  0.250054457E+01
   N  0.266035058E+01 -0.335066612E+01  0.250054457E+01
   C -0.148880386E+01  0.324368724E+01  0.249738650E+01
   C  0.148880386E+01  0.324368724E+01  0.249738650E+01
   C -0.377482201E+01 -0.908808959E+00  0.250371813E+01
   C  0.377482201E+01 -0.908808959E+00  0.250371813E+01
   H -0.123331617E+02  0.188883748E+02  0.244143637E+01
   H  0.123331617E+02  0.188883748E+02  0.244143637E+01
   H -0.204803612E+02 -0.397005334E+01  0.264610740E+01
   H  0.204803612E+02 -0.397005334E+01  0.264610740E+01
  Xx  0.369915027E-16  0.164859412E+01 -0.229669433E+04
    11
 # iter = 50000  time[fs]=50.00000
   N -0.267327608E+01 -0.335843500E+01  0.250062388E+01
   N  0.267327608E+01 -0.335843500E+01  0.250062388E+01
   C -0.148817785E+01  0.325390311E+01  0.249734091E+01
   C  0.148817785E+01  0.325390311E+01  0.249734091E+01
   C -0.378553460E+01 -0.919672163E+00  0.250381528E+01
   C  0.378553460E+01 -0.919672163E+00  0.250381528E+01
   H -0.124023743E+02  0.189925739E+02  0.244108159E+01
   H  0.124023743E+02  0.189925739E+02  0.244108159E+01
   H -0.205959929E+02 -0.399789466E+01  0.264701801E+01
   H  0.205959929E+02 -0.399789466E+01  0.264701801E+01
  Xx  0.371787083E-16  0.165061704E+01 -0.230833601E+04
    11
 # iter = 50250  time[fs]=50.25000
   N -0.268627021E+01 -0.336613434E+01  0.250070655E+01
   N  0.268627021E+01 -0.336613434E+01  0.250070655E+01
   C -0.148751931E+01  0.326411849E+01  0.249728394E+01
   C  0.148751931E+01  0.326411849E+01  0.249728394E+01
   C -0.379623699E+01 -0.930648170E+00  0.250390926E+01
   C  0.379623699E+01 -0.930648170E+00  0.250390926E+01
   H -0.124716225E+02  0.190968262E+02  0.244072681E+01
   H  0.124716225E+02  0.190968262E+02  0.244072681E+01
   H -0.207116867E+02 -0.402576262E+01  0.264792884E+01
   H  0.207116867E+02 -0.402576262E+01  0.264792884E+01
  Xx  0.373659191E-16  0.165263995E+01 -0.231997769E+04
    11
 # iter = 50500  time[fs]=50.50000
   N -0.269933641E+01 -0.337376138E+01  0.250079904E+01
   N  0.269933641E+01 -0.337376138E+01  0.250079904E+01
   C -0.148680544E+01  0.327433056E+01  0.249723465E+01
   C  0.148680544E+01  0.327433056E+01  0.249723465E+01
   C -0.380691248E+01 -0.941687833E+00  0.250398861E+01
   C  0.380691248E+01 -0.941687833E+00  0.250398861E+01
   H -0.125409062E+02  0.192011318E+02  0.244037204E+01
   H  0.125409062E+02  0.192011318E+02  0.244037204E+01
   H -0.208274426E+02 -0.405365722E+01  0.264883967E+01
   H  0.208274426E+02 -0.405365722E+01  0.264883967E+01
  Xx  0.375531378E-16  0.165466287E+01 -0.233161937E+04
    11
 # iter = 50750  time[fs]=50.75000
   N -0.271246125E+01 -0.338133999E+01  0.250089817E+01
   N  0.271246125E+01 -0.338133999E+01  0.250089817E+01
   C -0.148604629E+01  0.328455309E+01  0.249718738E+01
   C  0.148604629E+01  0.328455309E+01  0.249718738E+01
   C -0.381756520E+01 -0.952842061E+00  0.250405960E+01
   C  0.381756520E+01 -0.952842061E+00  0.250405960E+01
   H -0.126102255E+02  0.193054907E+02  0.244001726E+01
   H  0.126102255E+02  0.193054907E+02  0.244001726E+01
   H -0.209432608E+02 -0.408157824E+01  0.264975054E+01
   H  0.209432608E+02 -0.408157824E+01  0.264975054E+01
  Xx  0.377403687E-16  0.165668578E+01 -0.234326105E+04
    11
 # iter = 51000  time[fs]=51.00000
   N -0.272564206E+01 -0.338887260E+01  0.250100755E+01
   N  0.272564206E+01 -0.338887260E+01  0.250100755E+01
   C -0.148524769E+01  0.329475918E+01  0.249713115E+01
   C  0.148524769E+01  0.329475918E+01  0.249713115E+01
   C -0.382821036E+01 -0.964070659E+00  0.250411087E+01
   C  0.382821036E+01 -0.964070659E+00  0.250411087E+01
   H -0.126795803E+02  0.194099029E+02  0.243966249E+01
   H  0.126795803E+02  0.194099029E+02  0.243966249E+01
   H -0.210591411E+02 -0.410952402E+01  0.265066143E+01
   H  0.210591411E+02 -0.410952402E+01  0.265066143E+01
  Xx  0.379275994E-16  0.165870870E+01 -0.235490272E+04
    11
 # iter = 51250  time[fs]=51.25000
   N -0.273886903E+01 -0.339637445E+01  0.250111365E+01
   N  0.273886903E+01 -0.339637445E+01  0.250111365E+01
   C -0.148439729E+01  0.330497745E+01  0.249708836E+01
   C  0.148439729E+01  0.330497745E+01  0.249708836E+01
   C -0.383881553E+01 -0.975402810E+00  0.250417090E+01
   C  0.383881553E+01 -0.975402810E+00  0.250417090E+01
   H -0.127489706E+02  0.195143684E+02  0.243930771E+01
   H  0.127489706E+02  0.195143684E+02  0.243930771E+01
   H -0.211750836E+02 -0.413749423E+01  0.265157232E+01
   H  0.211750836E+02 -0.413749423E+01  0.265157232E+01
  Xx  0.381148288E-16  0.166073161E+01 -0.236654440E+04
    11
 # iter = 51500  time[fs]=51.50000
   N -0.275213842E+01 -0.340385713E+01  0.250122109E+01
   N  0.275213842E+01 -0.340385713E+01  0.250122109E+01
   C -0.148349827E+01  0.331518354E+01  0.249703397E+01
   C  0.148349827E+01  0.331518354E+01  0.249703397E+01
   C -0.384939811E+01 -0.986818161E+00  0.250422211E+01
   C  0.384939811E+01 -0.986818161E+00  0.250422211E+01
   H -0.128183964E+02  0.196188871E+02  0.243895293E+01
   H  0.128183964E+02  0.196188871E+02  0.243895293E+01
   H -0.212910883E+02 -0.416548886E+01  0.265248334E+01
   H  0.212910883E+02 -0.416548886E+01  0.265248334E+01
  Xx  0.383020624E-16  0.166275453E+01 -0.237818608E+04
    11
 # iter = 51750  time[fs]=51.75000
   N -0.276542966E+01 -0.341133197E+01  0.250131825E+01
   N  0.276542966E+01 -0.341133197E+01  0.250131825E+01
   C -0.148256200E+01  0.332538798E+01  0.249698305E+01
   C  0.148256200E+01  0.332538798E+01  0.249698305E+01
   C -0.385994096E+01 -0.998314958E+00  0.250428301E+01
   C  0.385994096E+01 -0.998314958E+00  0.250428301E+01
   H -0.128878578E+02  0.197234587E+02  0.243859816E+01
   H  0.128878578E+02  0.197234587E+02  0.243859816E+01
   H -0.214071551E+02 -0.419350792E+01  0.265339464E+01
   H  0.214071551E+02 -0.419350792E+01  0.265339464E+01
  Xx  0.384892984E-16  0.166477744E+01 -0.238982776E+04
    11
 # iter = 52000  time[fs]=52.00000
   N -0.277873425E+01 -0.341881348E+01  0.250140970E+01
   N  0.277873425E+01 -0.341881348E+01  0.250140970E+01
   C -0.148157003E+01  0.333559770E+01  0.249694222E+01
   C  0.148157003E+01  0.333559770E+01  0.249694222E+01
   C -0.387043958E+01 -0.100990391E+01  0.250435502E+01
   C  0.387043958E+01 -0.100990391E+01  0.250435502E+01
   H -0.129573546E+02  0.198280766E+02  0.243824338E+01
   H  0.129573546E+02  0.198280766E+02  0.243824338E+01
   H -0.215232841E+02 -0.422155140E+01  0.265430635E+01
   H  0.215232841E+02 -0.422155140E+01  0.265430635E+01
  Xx  0.386765276E-16  0.166680036E+01 -0.240146944E+04
    11
 # iter = 52250  time[fs]=52.25000
   N -0.279203250E+01 -0.342629437E+01  0.250149361E+01
   N  0.279203250E+01 -0.342629437E+01  0.250149361E+01
   C -0.148053671E+01  0.334579256E+01  0.249688580E+01
   C  0.148053671E+01  0.334579256E+01  0.249688580E+01
   C -0.388090671E+01 -0.102155494E+01  0.250442583E+01
   C  0.388090671E+01 -0.102155494E+01  0.250442583E+01
   H -0.130268871E+02  0.199327390E+02  0.243788860E+01
   H  0.130268871E+02  0.199327390E+02  0.243788860E+01
   H -0.216394753E+02 -0.424961930E+01  0.265521832E+01
   H  0.216394753E+02 -0.424961930E+01  0.265521832E+01
  Xx  0.388637493E-16  0.166882327E+01 -0.241311112E+04
    11
 # iter = 52500  time[fs]=52.50000
   N -0.280531175E+01 -0.343378638E+01  0.250157014E+01
   N  0.280531175E+01 -0.343378638E+01  0.250157014E+01
   C -0.147945744E+01  0.335599687E+01  0.249684003E+01
   C  0.147945744E+01  0.335599687E+01  0.249684003E+01
   C -0.389132131E+01 -0.103330156E+01  0.250451275E+01
   C  0.389132131E+01 -0.103330156E+01  0.250451275E+01
   H -0.130964548E+02  0.200374457E+02  0.243753383E+01
   H  0.130964548E+02  0.200374457E+02  0.243753383E+01
   H -0.217557264E+02 -0.427771163E+01  0.265613082E+01
   H  0.217557264E+02 -0.427771163E+01  0.265613082E+01
  Xx  0.390509736E-16  0.167084619E+01 -0.242475280E+04
    11
 # iter = 52750  time[fs]=52.75000
   N -0.281856072E+01 -0.344128023E+01  0.250164892E+01
   N  0.281856072E+01 -0.344128023E+01  0.250164892E+01
   C -0.147833340E+01  0.336619623E+01  0.249679751E+01
   C  0.147833340E+01  0.336619623E+01  0.249679751E+01
   C -0.390171939E+01 -0.104510806E+01  0.250459060E+01
   C  0.390171939E+01 -0.104510806E+01  0.250459060E+01
   H -0.131660548E+02  0.201421968E+02  0.243717905E+01
   H  0.131660548E+02  0.201421968E+02  0.243717905E+01
   H -0.218720312E+02 -0.430582839E+01  0.265704368E+01
   H  0.218720312E+02 -0.430582839E+01  0.265704368E+01
  Xx  0.392381905E-16  0.167286910E+01 -0.243639448E+04
    11
 # iter = 53000  time[fs]=53.00000
   N -0.283176624E+01 -0.344876828E+01  0.250172862E+01
   N  0.283176624E+01 -0.344876828E+01  0.250172862E+01
   C -0.147716000E+01  0.337639400E+01  0.249674401E+01
   C  0.147716000E+01  0.337639400E+01  0.249674401E+01
   C -0.391207898E+01 -0.105702300E+01  0.250466780E+01
   C  0.391207898E+01 -0.105702300E+01  0.250466780E+01
   H -0.132356859E+02  0.202469924E+02  0.243682427E+01
   H  0.132356859E+02  0.202469924E+02  0.243682427E+01
   H -0.219883893E+02 -0.433396936E+01  0.265795683E+01
   H  0.219883893E+02 -0.433396936E+01  0.265795683E+01
  Xx  0.394254000E-16  0.167489202E+01 -0.244803616E+04
    11
 # iter = 53250  time[fs]=53.25000
   N -0.284493743E+01 -0.345623816E+01  0.250181208E+01
   N  0.284493743E+01 -0.345623816E+01  0.250181208E+01
   C -0.147594830E+01  0.338660262E+01  0.249670362E+01
   C  0.147594830E+01  0.338660262E+01  0.249670362E+01
   C -0.392242684E+01 -0.106899178E+01  0.250474302E+01
   C  0.392242684E+01 -0.106899178E+01  0.250474302E+01
   H -0.133053481E+02  0.203518324E+02  0.243646950E+01
   H  0.133053481E+02  0.203518324E+02  0.243646950E+01
   H -0.221048007E+02 -0.436213288E+01  0.265886998E+01
   H  0.221048007E+02 -0.436213288E+01  0.265886998E+01
  Xx  0.396125975E-16  0.167691493E+01 -0.245967784E+04
    11
 # iter = 53500  time[fs]=53.50000
   N -0.285807049E+01 -0.346370109E+01  0.250189960E+01
   N  0.285807049E+01 -0.346370109E+01  0.250189960E+01
   C -0.147467923E+01  0.339680462E+01  0.249665571E+01
   C  0.147467923E+01  0.339680462E+01  0.249665571E+01
   C -0.393276506E+01 -0.108106762E+01  0.250480415E+01
   C  0.393276506E+01 -0.108106762E+01  0.250480415E+01
   H -0.133750413E+02  0.204567168E+02  0.243611472E+01
   H  0.133750413E+02  0.204567168E+02  0.243611472E+01
   H -0.222212654E+02 -0.439031862E+01  0.265978313E+01
   H  0.222212654E+02 -0.439031862E+01  0.265978313E+01
  Xx  0.397997901E-16  0.167893785E+01 -0.247131952E+04
    11
 # iter = 53750  time[fs]=53.75000
   N -0.287118778E+01 -0.347113065E+01  0.250198985E+01
   N  0.287118778E+01 -0.347113065E+01  0.250198985E+01
   C -0.147337654E+01  0.340701944E+01  0.249661013E+01
   C  0.147337654E+01  0.340701944E+01  0.249661013E+01
   C -0.394308643E+01 -0.109322036E+01  0.250486164E+01
   C  0.394308643E+01 -0.109322036E+01  0.250486164E+01
   H -0.134447657E+02  0.205616456E+02  0.243575995E+01
   H  0.134447657E+02  0.205616456E+02  0.243575995E+01
   H -0.223377834E+02 -0.441852655E+01  0.266069628E+01
   H  0.223377834E+02 -0.441852655E+01  0.266069628E+01
  Xx  0.399869744E-16  0.168096076E+01 -0.248296120E+04
    11
 # iter = 54000  time[fs]=54.00000
   N -0.288431651E+01 -0.347852534E+01  0.250207477E+01
   N  0.288431651E+01 -0.347852534E+01  0.250207477E+01
   C -0.147201951E+01  0.341724105E+01  0.249657261E+01
   C  0.147201951E+01  0.341724105E+01  0.249657261E+01
   C -0.395340574E+01 -0.110545014E+01  0.250492292E+01
   C  0.395340574E+01 -0.110545014E+01  0.250492292E+01
   H -0.135145211E+02  0.206666188E+02  0.243540517E+01
   H  0.135145211E+02  0.206666188E+02  0.243540517E+01
   H -0.224543546E+02 -0.444675669E+01  0.266160943E+01
   H  0.224543546E+02 -0.444675669E+01  0.266160943E+01
  Xx  0.401741491E-16  0.168298368E+01 -0.249460288E+04
    11
 # iter = 54250  time[fs]=54.25000
   N -0.289747382E+01 -0.348589311E+01  0.250216337E+01
   N  0.289747382E+01 -0.348589311E+01  0.250216337E+01
   C -0.147061944E+01  0.342745952E+01  0.249652189E+01
   C  0.147061944E+01  0.342745952E+01  0.249652189E+01
   C -0.396370306E+01 -0.111779423E+01  0.250496831E+01
   C  0.396370306E+01 -0.111779423E+01  0.250496831E+01
   H -0.135843076E+02  0.207716364E+02  0.243505039E+01
   H  0.135843076E+02  0.207716364E+02  0.243505039E+01
   H -0.225709792E+02 -0.447500904E+01  0.266252258E+01
   H  0.225709792E+02 -0.447500904E+01  0.266252258E+01
  Xx  0.403613200E-16  0.168500659E+01 -0.250624456E+04
    11
 # iter = 54500  time[fs]=54.50000
   N -0.291069695E+01 -0.349320730E+01  0.250224370E+01
   N  0.291069695E+01 -0.349320730E+01  0.250224370E+01
   C -0.146917836E+01  0.343770130E+01  0.249648455E+01
   C  0.146917836E+01  0.343770130E+01  0.249648455E+01
   C -0.397397964E+01 -0.113019311E+01  0.250502902E+01
   C  0.397397964E+01 -0.113019311E+01  0.250502902E+01
   H -0.136541252E+02  0.208766984E+02  0.243469562E+01
   H  0.136541252E+02  0.208766984E+02  0.243469562E+01
   H -0.226876570E+02 -0.450328359E+01  0.266343572E+01
   H  0.226876570E+02 -0.450328359E+01  0.266343572E+01
  Xx  0.405484822E-16  0.168702951E+01 -0.251788624E+04
    11
 # iter = 54750  time[fs]=54.75000
   N -0.292400506E+01 -0.350047974E+01  0.250231962E+01
   N  0.292400506E+01 -0.350047974E+01  0.250231962E+01
   C -0.146768840E+01  0.344793796E+01  0.249644421E+01
   C  0.146768840E+01  0.344793796E+01  0.249644421E+01
   C -0.398421642E+01 -0.114270900E+01  0.250508695E+01
   C  0.398421642E+01 -0.114270900E+01  0.250508695E+01
   H -0.137239739E+02  0.209818048E+02  0.243434084E+01
   H  0.137239739E+02  0.209818048E+02  0.243434084E+01
   H -0.228043881E+02 -0.453158034E+01  0.266434887E+01
   H  0.228043881E+02 -0.453158034E+01  0.266434887E+01
  Xx  0.407356474E-16  0.168905242E+01 -0.252952792E+04
    11
 # iter = 55000  time[fs]=55.00000
   N -0.293741974E+01 -0.350770227E+01  0.250238822E+01
   N  0.293741974E+01 -0.350770227E+01  0.250238822E+01
   C -0.146615758E+01  0.345818519E+01  0.249639779E+01
   C  0.146615758E+01  0.345818519E+01  0.249639779E+01
   C -0.399442871E+01 -0.115528111E+01  0.250515058E+01
   C  0.399442871E+01 -0.115528111E+01  0.250515058E+01
   H -0.137938537E+02  0.210869556E+02  0.243398606E+01
   H  0.137938537E+02  0.210869556E+02  0.243398606E+01
   H -0.229211725E+02 -0.455989930E+01  0.266526202E+01
   H  0.229211725E+02 -0.455989930E+01  0.266526202E+01
  Xx  0.409228127E-16  0.169107534E+01 -0.254116960E+04
    11
 # iter = 55250  time[fs]=55.25000
   N -0.295094284E+01 -0.351486718E+01  0.250245183E+01
   N  0.295094284E+01 -0.351486718E+01  0.250245183E+01
   C -0.146458403E+01  0.346844830E+01  0.249636368E+01
   C  0.146458403E+01  0.346844830E+01  0.249636368E+01
   C -0.400457836E+01 -0.116795764E+01  0.250521572E+01
   C  0.400457836E+01 -0.116795764E+01  0.250521572E+01
   H -0.138637646E+02  0.211921509E+02  0.243363129E+01
   H  0.138637646E+02  0.211921509E+02  0.243363129E+01
   H -0.230380103E+02 -0.458824046E+01  0.266617517E+01
   H  0.230380103E+02 -0.458824046E+01  0.266617517E+01
  Xx  0.411099779E-16  0.169309825E+01 -0.255281128E+04
    11
 # iter = 55500  time[fs]=55.50000
   N -0.296457436E+01 -0.352196148E+01  0.250250950E+01
   N  0.296457436E+01 -0.352196148E+01  0.250250950E+01
   C -0.146295752E+01  0.347870485E+01  0.249632157E+01
   C  0.146295752E+01  0.347870485E+01  0.249632157E+01
   C -0.401469624E+01 -0.118070307E+01  0.250528903E+01
   C  0.401469624E+01 -0.118070307E+01  0.250528903E+01
   H -0.139337065E+02  0.212973905E+02  0.243327651E+01
   H  0.139337065E+02  0.212973905E+02  0.243327651E+01
   H -0.231549013E+02 -0.461660259E+01  0.266708832E+01
   H  0.231549013E+02 -0.461660259E+01  0.266708832E+01
  Xx  0.412971444E-16  0.169512117E+01 -0.256445296E+04
    11
 # iter = 55750  time[fs]=55.75000
   N -0.297830041E+01 -0.352898278E+01  0.250256745E+01
   N  0.297830041E+01 -0.352898278E+01  0.250256745E+01
   C -0.146130191E+01  0.348897681E+01  0.249627982E+01
   C  0.146130191E+01  0.348897681E+01  0.249627982E+01
   C -0.402475976E+01 -0.119354841E+01  0.250535295E+01
   C  0.402475976E+01 -0.119354841E+01  0.250535295E+01
   H -0.140036796E+02  0.214026746E+02  0.243292173E+01
   H  0.140036796E+02  0.214026746E+02  0.243292173E+01
   H -0.232718455E+02 -0.464498587E+01  0.266800147E+01
   H  0.232718455E+02 -0.464498587E+01  0.266800147E+01
  Xx  0.414843236E-16  0.169714408E+01 -0.257609463E+04
    11
 # iter = 56000  time[fs]=56.00000
   N -0.299209084E+01 -0.353591022E+01  0.250261902E+01
   N  0.299209084E+01 -0.353591022E+01  0.250261902E+01
   C -0.145958610E+01  0.349925387E+01  0.249624659E+01
   C  0.145958610E+01  0.349925387E+01  0.249624659E+01
   C -0.403478520E+01 -0.120649026E+01  0.250542575E+01
   C  0.403478520E+01 -0.120649026E+01  0.250542575E+01
   H -0.140736826E+02  0.215080031E+02  0.243256696E+01
   H  0.140736826E+02  0.215080031E+02  0.243256696E+01
   H -0.233888431E+02 -0.467338982E+01  0.266891462E+01
   H  0.233888431E+02 -0.467338982E+01  0.266891462E+01
  Xx  0.416715047E-16  0.169916700E+01 -0.258773631E+04
    11
 # iter = 56250  time[fs]=56.25000
   N -0.300591828E+01 -0.354273537E+01  0.250267661E+01
   N  0.300591828E+01 -0.354273537E+01  0.250267661E+01
   C -0.145783722E+01  0.350952316E+01  0.249620256E+01
   C  0.145783722E+01  0.350952316E+01  0.249620256E+01
   C -0.404478478E+01 -0.121951872E+01  0.250548393E+01
   C  0.404478478E+01 -0.121951872E+01  0.250548393E+01
   H -0.141437145E+02  0.216133759E+02  0.243221218E+01
   H  0.141437145E+02  0.216133759E+02  0.243221218E+01
   H -0.235058940E+02 -0.470181375E+01  0.266982777E+01
   H  0.235058940E+02 -0.470181375E+01  0.266982777E+01
  Xx  0.418586834E-16  0.170118991E+01 -0.259937799E+04
    11
 # iter = 56500  time[fs]=56.50000
   N -0.301974702E+01 -0.354944872E+01  0.250273133E+01
   N  0.301974702E+01 -0.354944872E+01  0.250273133E+01
   C -0.145604370E+01  0.351981097E+01  0.249616921E+01
   C  0.145604370E+01  0.351981097E+01  0.249616921E+01
   C -0.405475328E+01 -0.123266547E+01  0.250553991E+01
   C  0.405475328E+01 -0.123266547E+01  0.250553991E+01
   H -0.142137735E+02  0.217187932E+02  0.243185741E+01
   H  0.142137735E+02  0.217187932E+02  0.243185741E+01
   H -0.236229970E+02 -0.473025767E+01  0.267074091E+01
   H  0.236229970E+02 -0.473025767E+01  0.267074091E+01
  Xx  0.420458684E-16  0.170321283E+01 -0.261101967E+04
    11
 # iter = 56750  time[fs]=56.75000
   N -0.303355179E+01 -0.355603650E+01  0.250279145E+01
   N  0.303355179E+01 -0.355603650E+01  0.250279145E+01
   C -0.145420190E+01  0.353008476E+01  0.249612841E+01
   C  0.145420190E+01  0.353008476E+01  0.249612841E+01
   C -0.406471482E+01 -0.124589244E+01  0.250559152E+01
   C  0.406471482E+01 -0.124589244E+01  0.250559152E+01
   H -0.142838592E+02  0.218242508E+02  0.243150263E+01
   H  0.142838592E+02  0.218242508E+02  0.243150263E+01
   H -0.237401454E+02 -0.475872157E+01  0.267165406E+01
   H  0.237401454E+02 -0.475872157E+01  0.267165406E+01
  Xx  0.422330534E-16  0.170523574E+01 -0.262266135E+04
    11
 # iter = 57000  time[fs]=57.00000
   N -0.304731846E+01 -0.356250028E+01  0.250284981E+01
   N  0.304731846E+01 -0.356250028E+01  0.250284981E+01
   C -0.145232130E+01  0.354036652E+01  0.249608989E+01
   C  0.145232130E+01  0.354036652E+01  0.249608989E+01
   C -0.407464890E+01 -0.125924687E+01  0.250563327E+01
   C  0.407464890E+01 -0.125924687E+01  0.250563327E+01
   H -0.143539715E+02  0.219297439E+02  0.243114785E+01
   H  0.143539715E+02  0.219297439E+02  0.243114785E+01
   H -0.238573382E+02 -0.478720545E+01  0.267256721E+01
   H  0.238573382E+02 -0.478720545E+01  0.267256721E+01
  Xx  0.424202343E-16  0.170725866E+01 -0.263430303E+04
    11
 # iter = 57250  time[fs]=57.25000
   N -0.306105181E+01 -0.356883060E+01  0.250291000E+01
   N  0.306105181E+01 -0.356883060E+01  0.250291000E+01
   C -0.145039602E+01  0.355064582E+01  0.249605683E+01
   C  0.145039602E+01  0.355064582E+01  0.249605683E+01
   C -0.408456571E+01 -0.127266744E+01  0.250567813E+01
   C  0.408456571E+01 -0.127266744E+01  0.250567813E+01
   H -0.144241105E+02  0.220352725E+02  0.243079308E+01
   H  0.144241105E+02  0.220352725E+02  0.243079308E+01
   H -0.239745755E+02 -0.481570932E+01  0.267348036E+01
   H  0.239745755E+02 -0.481570932E+01  0.267348036E+01
  Xx  0.426074082E-16  0.170928158E+01 -0.264594471E+04
    11
 # iter = 57500  time[fs]=57.50000
   N -0.307474964E+01 -0.357505802E+01  0.250295899E+01
   N  0.307474964E+01 -0.357505802E+01  0.250295899E+01
   C -0.144842319E+01  0.356092090E+01  0.249601553E+01
   C  0.144842319E+01  0.356092090E+01  0.249601553E+01
   C -0.409444002E+01 -0.128619835E+01  0.250572180E+01
   C  0.409444002E+01 -0.128619835E+01  0.250572180E+01
   H -0.144942761E+02  0.221408367E+02  0.243043830E+01
   H  0.144942761E+02  0.221408367E+02  0.243043830E+01
   H -0.240918571E+02 -0.484423317E+01  0.267439351E+01
   H  0.240918571E+02 -0.484423317E+01  0.267439351E+01
  Xx  0.427945820E-16  0.171130449E+01 -0.265758639E+04
    11
 # iter = 57750  time[fs]=57.75000
   N -0.308843023E+01 -0.358117342E+01  0.250300448E+01
   N  0.308843023E+01 -0.358117342E+01  0.250300448E+01
   C -0.144641089E+01  0.357119899E+01  0.249597667E+01
   C  0.144641089E+01  0.357119899E+01  0.249597667E+01
   C -0.410426256E+01 -0.129979784E+01  0.250576301E+01
   C  0.410426256E+01 -0.129979784E+01  0.250576301E+01
   H -0.145644683E+02  0.222464364E+02  0.243008352E+01
   H  0.145644683E+02  0.222464364E+02  0.243008352E+01
   H -0.242091832E+02 -0.487277701E+01  0.267530666E+01
   H  0.242091832E+02 -0.487277701E+01  0.267530666E+01
  Xx  0.429817559E-16  0.171332741E+01 -0.266922807E+04
    11
 # iter = 58000  time[fs]=58.00000
   N -0.310210774E+01 -0.358719321E+01  0.250304084E+01
   N  0.310210774E+01 -0.358719321E+01  0.250304084E+01
   C -0.144435217E+01  0.358147192E+01  0.249594421E+01
   C  0.144435217E+01  0.358147192E+01  0.249594421E+01
   C -0.411403854E+01 -0.131345866E+01  0.250581492E+01
   C  0.411403854E+01 -0.131345866E+01  0.250581492E+01
   H -0.146346872E+02  0.223520716E+02  0.242972875E+01
   H  0.146346872E+02  0.223520716E+02  0.242972875E+01
   H -0.243265537E+02 -0.490134083E+01  0.267621981E+01
   H  0.243265537E+02 -0.490134083E+01  0.267621981E+01
  Xx  0.431689297E-16  0.171535032E+01 -0.268086975E+04
    11
 # iter = 58250  time[fs]=58.25000
   N -0.311579287E+01 -0.359313856E+01  0.250306736E+01
   N  0.311579287E+01 -0.359313856E+01  0.250306736E+01
   C -0.144224493E+01  0.359174134E+01  0.249589932E+01
   C  0.144224493E+01  0.359174134E+01  0.249589932E+01
   C -0.412374729E+01 -0.132722736E+01  0.250586418E+01
   C  0.412374729E+01 -0.132722736E+01  0.250586418E+01
   H -0.147049328E+02  0.224577423E+02  0.242937397E+01
   H  0.147049328E+02  0.224577423E+02  0.242937397E+01
   H -0.244439686E+02 -0.492992433E+01  0.267713295E+01
   H  0.244439686E+02 -0.492992433E+01  0.267713295E+01
  Xx  0.433561036E-16  0.171737324E+01 -0.269251143E+04
    11
 # iter = 58500  time[fs]=58.50000
   N -0.312950997E+01 -0.359897778E+01  0.250308727E+01
   N  0.312950997E+01 -0.359897778E+01  0.250308727E+01
   C -0.144010108E+01  0.360201834E+01  0.249586790E+01
   C  0.144010108E+01  0.360201834E+01  0.249586790E+01
   C -0.413342010E+01 -0.134103543E+01  0.250591972E+01
   C  0.413342010E+01 -0.134103543E+01  0.250591972E+01
   H -0.147752050E+02  0.225634486E+02  0.242901919E+01
   H  0.147752050E+02  0.225634486E+02  0.242901919E+01
   H -0.245614279E+02 -0.495852610E+01  0.267804610E+01
   H  0.245614279E+02 -0.495852610E+01  0.267804610E+01
  Xx  0.435432760E-16  0.171939615E+01 -0.270415311E+04
    11
 # iter = 58750  time[fs]=58.75000
   N -0.314325998E+01 -0.360473992E+01  0.250309744E+01
   N  0.314325998E+01 -0.360473992E+01  0.250309744E+01
   C -0.143790455E+01  0.361228593E+01  0.249582835E+01
   C  0.143790455E+01  0.361228593E+01  0.249582835E+01
   C -0.414305083E+01 -0.135496745E+01  0.250598262E+01
   C  0.414305083E+01 -0.135496745E+01  0.250598262E+01
   H -0.148455038E+02  0.226691904E+02  0.242866442E+01
   H  0.148455038E+02  0.226691904E+02  0.242866442E+01
   H -0.246789316E+02 -0.498714702E+01  0.267895925E+01
   H  0.246789316E+02 -0.498714702E+01  0.267895925E+01
  Xx  0.437304497E-16  0.172141907E+01 -0.271579479E+04
    11
 # iter = 59000  time[fs]=59.00000
   N -0.315705440E+01 -0.361040395E+01  0.250310383E+01
   N  0.315705440E+01 -0.361040395E+01  0.250310383E+01
   C -0.143566533E+01  0.362256149E+01  0.249579028E+01
   C  0.143566533E+01  0.362256149E+01  0.249579028E+01
   C -0.415267306E+01 -0.136897342E+01  0.250603865E+01
   C  0.415267306E+01 -0.136897342E+01  0.250603865E+01
   H -0.149158293E+02  0.227749677E+02  0.242830964E+01
   H  0.149158293E+02  0.227749677E+02  0.242830964E+01
   H -0.247964797E+02 -0.501578580E+01  0.267987240E+01
   H  0.247964797E+02 -0.501578580E+01  0.267987240E+01
  Xx  0.439176170E-16  0.172344198E+01 -0.272743647E+04
    11
 # iter = 59250  time[fs]=59.25000
   N -0.317089600E+01 -0.361596667E+01  0.250310934E+01
   N  0.317089600E+01 -0.361596667E+01  0.250310934E+01
   C -0.143338027E+01  0.363283842E+01  0.249575885E+01
   C  0.143338027E+01  0.363283842E+01  0.249575885E+01
   C -0.416227496E+01 -0.138309903E+01  0.250609904E+01
   C  0.416227496E+01 -0.138309903E+01  0.250609904E+01
   H -0.149861814E+02  0.228807805E+02  0.242795486E+01
   H  0.149861814E+02  0.228807805E+02  0.242795486E+01
   H -0.249140722E+02 -0.504444234E+01  0.268078555E+01
   H  0.249140722E+02 -0.504444234E+01  0.268078555E+01
  Xx  0.441047836E-16  0.172546490E+01 -0.273907815E+04
    11
 # iter = 59500  time[fs]=59.50000
   N -0.318479680E+01 -0.362144645E+01  0.250311757E+01
   N  0.318479680E+01 -0.362144645E+01  0.250311757E+01
   C -0.143105101E+01  0.364311886E+01  0.249572152E+01
   C  0.143105101E+01  0.364311886E+01  0.249572152E+01
   C -0.417188709E+01 -0.139733341E+01  0.250614858E+01
   C  0.417188709E+01 -0.139733341E+01  0.250614858E+01
   H -0.150565602E+02  0.229866289E+02  0.242760009E+01
   H  0.150565602E+02  0.229866289E+02  0.242760009E+01
   H -0.250317091E+02 -0.507311665E+01  0.268169870E+01
   H  0.250317091E+02 -0.507311665E+01  0.268169870E+01
  Xx  0.442919548E-16  0.172748781E+01 -0.275071983E+04
    11
 # iter = 59750  time[fs]=59.75000
   N -0.319876115E+01 -0.362684486E+01  0.250313208E+01
   N  0.319876115E+01 -0.362684486E+01  0.250313208E+01
   C -0.142866622E+01  0.365340634E+01  0.249568775E+01
   C  0.142866622E+01  0.365340634E+01  0.249568775E+01
   C -0.418148349E+01 -0.141166308E+01  0.250618867E+01
   C  0.418148349E+01 -0.141166308E+01  0.250618867E+01
   H -0.151269656E+02  0.230925128E+02  0.242724531E+01
   H  0.151269656E+02  0.230925128E+02  0.242724531E+01
   H -0.251493904E+02 -0.510180873E+01  0.268261185E+01
   H  0.251493904E+02 -0.510180873E+01  0.268261185E+01
  Xx  0.444791331E-16  0.172951073E+01 -0.276236151E+04
    11
 # iter = 60000  time[fs]=60.00000
   N -0.321280763E+01 -0.363217564E+01  0.250315140E+01
   N  0.321280763E+01 -0.363217564E+01  0.250315140E+01
   C -0.142625080E+01  0.366369728E+01  0.249565977E+01
   C  0.142625080E+01  0.366369728E+01  0.249565977E+01
   C -0.419104372E+01 -0.142612191E+01  0.250622459E+01
   C  0.419104372E+01 -0.142612191E+01  0.250622459E+01
   H -0.151973977E+02  0.231984322E+02  0.242689054E+01
   H  0.151973977E+02  0.231984322E+02  0.242689054E+01
   H -0.252671162E+02 -0.513051856E+01  0.268352499E+01
   H  0.252671162E+02 -0.513051856E+01  0.268352499E+01
  Xx  0.446663114E-16  0.173153364E+01 -0.277400319E+04
