5
# iter =     0  time[fs]= 0.00000
O    1.080265000  -0.146533000  -0.176262000
O   -1.128161000  -0.292300000  -0.102073000
C   -0.090760000   0.472884000   0.234446000
H   -0.125873000   1.527941000  -0.049205000
H    1.059257000  -1.082910000   0.092879000
5
# iter =   500  time[fs]= 0.50000
O    1.081329640  -0.146603936  -0.177030250
O   -1.129489650  -0.292477167  -0.101340012
C   -0.090942575   0.472247372   0.233961599
H   -0.126148121   1.528135020  -0.048300638
H    1.058934700  -1.079105540   0.091498495
5
# iter =  1000  time[fs]= 1.00000
O    1.084563480  -0.146814456  -0.179388664
O   -1.133458280  -0.292994612  -0.099146124
C   -0.091500733   0.470349646   0.232513789
H   -0.126968838   1.528662160  -0.045592435
H    1.058113820  -1.067888900   0.087462539
5
# iter =  1500  time[fs]= 1.50000
O    1.090108320  -0.147172148  -0.183499608
O   -1.140014710  -0.293815608  -0.095492644
C   -0.092461462   0.467219279   0.230113376
H   -0.128315832   1.529379920  -0.041048527
H    1.056918720  -1.049537570   0.080997386
5
# iter =  2000  time[fs]= 2.00000
O    1.098194380  -0.147621670  -0.189666723
O   -1.149032110  -0.294879794  -0.090388865
C   -0.093861208   0.462901760   0.226787122
H   -0.130167663   1.530069780  -0.034630840
H    1.055403970  -1.025670310   0.072916971
5
# iter =  2500  time[fs]= 2.50000
O    1.109133130  -0.148075374  -0.198281634
O   -1.160251680  -0.296111283  -0.083846555
C   -0.095756008   0.457457571   0.222563511
H   -0.132490546   1.530481600  -0.026293969
H    1.053423250  -0.998640478   0.064067432
5
# iter =  3000  time[fs]= 3.00000
O    1.123231610  -0.148368177  -0.209819097
O   -1.173222800  -0.297420906  -0.075888289
C   -0.098218389   0.450954287   0.217472587
H   -0.135262090   1.530477280  -0.015993512
H    1.050845980  -0.972243740   0.055708572
5
# iter =  3500  time[fs]= 3.50000
O    1.140678360  -0.148333469  -0.224720119
O   -1.187268850  -0.298710716  -0.066534740
C   -0.101341333   0.443479495   0.211537440
H   -0.138461040   1.529741100  -0.003616295
H    1.047287090  -0.950361399   0.049038253
5
# iter =  4000  time[fs]= 4.00000
O    1.161329400  -0.147808991  -0.243224135
O   -1.201562950  -0.299880246  -0.055806789
C   -0.105195737   0.435127577   0.204761114
H   -0.142072693   1.527926060   0.010935302
H    1.042237140  -0.936764698   0.044937362
5
# iter =  4500  time[fs]= 4.50000
O    1.184485680  -0.146707101  -0.265110025
O   -1.215243300  -0.300821948  -0.043722584
C   -0.109843761   0.425949254   0.197119160
H   -0.146056728   1.524769370   0.027818152
H    1.035432200  -0.933718505   0.043497725
5
# iter =  5000  time[fs]= 5.00000
O    1.208835070  -0.145066156  -0.289474774
O   -1.227580190  -0.301439066  -0.030349992
C   -0.115340516   0.415950917   0.188566702
H   -0.150284455   1.520113280   0.047167389
H    1.027287940  -0.941011385   0.043738317
5
# iter =  5500  time[fs]= 5.50000
O    1.232746790  -0.143007503  -0.314715913
O   -1.238078060  -0.301666462  -0.015877772
C   -0.121721310   0.405103277   0.179064970
H   -0.154631328   1.513601900   0.069144676
H    1.018859920  -0.956270379   0.043800390
5
# iter =  6000  time[fs]= 6.00000
O    1.254742670  -0.140640667  -0.338874161
O   -1.246455730  -0.301468820  -0.000680297
C   -0.129028755   0.393326638   0.168604082
H   -0.158945792   1.505022700   0.093676482
H    1.011543870  -0.976204514   0.041611578
5
# iter =  6500  time[fs]= 6.50000
O    1.273830690  -0.138001021  -0.360235141
O   -1.252568170  -0.300848272   0.014693385
C   -0.137294516   0.380551427   0.157208061
H   -0.162999429   1.494160120   0.120610334
H    1.006656210  -0.997617592   0.035460817
5
# iter =  7000  time[fs]= 7.00000
O    1.289546290  -0.135047218  -0.377786003
O   -1.256347340  -0.299862172   0.029627773
C   -0.146485992   0.366766994   0.144905598
H   -0.166630693   1.480959200   0.149478197
H    1.005358560  -1.017839810   0.024256616
5
# iter =  7500  time[fs]= 7.50000
O    1.301846300  -0.131687047  -0.391197183
O   -1.257749240  -0.298622275   0.043575961
C   -0.156517030   0.352025711   0.131721937
H   -0.169834158   1.465307430   0.179684367
H    1.008569980  -1.034529910   0.007212293
5
# iter =  8000  time[fs]= 8.00000
O    1.310931980  -0.127746911  -0.400579414
O   -1.256712850  -0.297282562   0.056183789
C   -0.167364708   0.336432488   0.117689792
H   -0.172519495   1.446953980   0.210488440
H    1.016876100  -1.046415080  -0.015989059
5
# iter =  8500  time[fs]= 8.50000
O    1.317115520  -0.123018137  -0.406202511
O   -1.253216670  -0.296039131   0.067313317
C   -0.179054523   0.320164069   0.102855540
H   -0.174670406   1.425918890   0.241120593
H    1.030429930  -1.052897740  -0.045126411
5
# iter =  9000  time[fs]= 9.00000
O    1.320702450  -0.117312101  -0.408307636
O   -1.247309200  -0.295107201   0.076952379
C   -0.191641642   0.303489164   0.087294679
H   -0.176327469   1.402623050   0.271003248
H    1.049052880  -1.053333610  -0.079849620
5
# iter =  9500  time[fs]= 9.50000
O    1.321894240  -0.110376022  -0.407040772
O   -1.239274320  -0.294724776   0.085138475
C   -0.204945600   0.286775490   0.071076573
H   -0.177200066   1.377858550   0.299925014
H    1.072575610  -1.047830270  -0.119245530
5
# iter = 10000  time[fs]=10.00000
O    1.320756620  -0.101851237  -0.402387741
O   -1.229697320  -0.295156902   0.091947147
C   -0.218415861   0.270455516   0.054254797
H   -0.177222488   1.352133500   0.327839357
H    1.101106180  -1.036793930  -0.162359554
5
# iter = 10500  time[fs]=10.50000
O    1.317327110  -0.091230888  -0.394201018
O   -1.219386880  -0.296638683   0.097543243
C   -0.231369871   0.254895247   0.036877895
H   -0.176627309   1.325808660   0.354537460
H    1.134389490  -1.021552330  -0.208411158
5
# iter = 11000  time[fs]=11.00000
O    1.311662350  -0.078025215  -0.382264046
O   -1.209257980  -0.299308509   0.102144745
C   -0.243321183   0.240380128   0.019020490
H   -0.175663277   1.299572720   0.380049527
H    1.171746690  -1.004531220  -0.256766020
5
# iter = 11500  time[fs]=11.50000
O    1.303877030  -0.062048859  -0.366437241
O   -1.200277060  -0.303199497   0.105934726
C   -0.253998936   0.227374865   0.000853363
H   -0.174267234   1.273349420   0.404157946
H    1.211908720  -0.987273652  -0.306814678
5
# iter = 12000  time[fs]=12.00000
O    1.294079090  -0.043407624  -0.346859669
O   -1.193394360  -0.308261290   0.109002143
C   -0.262917060   0.216511426  -0.017413630
H   -0.172521315   1.246994650   0.426317024
H    1.254055980  -0.971199674  -0.358048574
5
# iter = 12500  time[fs]=12.50000
O    1.282307810  -0.022332009  -0.324148981
O   -1.189507970  -0.314421279   0.111423000
C   -0.268997868   0.208292256  -0.035715777
H   -0.170402527   1.220952830   0.446020166
H    1.298772200  -0.958154149  -0.410405464
5
# iter = 13000  time[fs]=13.00000
O    1.268723050   0.000622667  -0.299620290
O   -1.189204570  -0.321421943   0.113303090
C   -0.271329187   0.202720281  -0.054057832
H   -0.167905610   1.195541590   0.463098408
H    1.347425330  -0.948225148  -0.463840816
5
# iter = 13500  time[fs]=13.50000
O    1.253434960   0.024219699  -0.274971988
O   -1.192311310  -0.328662137   0.114724890
C   -0.270196418   0.199227257  -0.072330407
H   -0.165326216   1.171972600   0.478256386
H    1.399865560  -0.940187439  -0.518079094
5
# iter = 14000  time[fs]=14.00000
O    1.236675810   0.046912995  -0.251814667
O   -1.198264400  -0.335516731   0.115701287
C   -0.266845383   0.197528840  -0.090172644
H   -0.163144688   1.150635960   0.491673923
H    1.452901360  -0.929584616  -0.572067900
5
# iter = 14500  time[fs]=14.50000
O    1.218892770   0.067608463  -0.231233319
O   -1.206425820  -0.341459352   0.116154792
C   -0.262353206   0.197905579  -0.107283522
H   -0.162059035   1.131036000   0.502636621
H    1.503639710  -0.911727256  -0.624938768
5
# iter = 15000  time[fs]=15.00000
O    1.200556680   0.085901360  -0.213653801
O   -1.215963890  -0.346138349   0.115956403
C   -0.256429695   0.200314405  -0.123890146
H   -0.161211180   1.116818490   0.512567026
H    1.552085820  -0.885690855  -0.676551587
5
# iter = 15500  time[fs]=15.50000
O    1.182413760   0.101516794  -0.198921897
O   -1.226147200  -0.349451525   0.114947657
C   -0.248265244   0.204515722  -0.140252555
H   -0.158721036   1.108595550   0.522060480
H    1.600092880  -0.850773560  -0.725521847
5
# iter = 16000  time[fs]=16.00000
O    1.165488060   0.114395188  -0.186724577
O   -1.236136420  -0.351048849   0.113052352
C   -0.238261521   0.210149477  -0.156297286
H   -0.155472811   1.103474880   0.530769763
H    1.650477060  -0.812501416  -0.771288857
5
# iter = 16500  time[fs]=16.50000
O    1.151115510   0.125028650  -0.177035359
O   -1.244940940  -0.350583453   0.110347417
C   -0.228161309   0.216484495  -0.171929429
H   -0.153617473   1.101936680   0.539204557
H    1.698221650  -0.773218791  -0.813807176
5
# iter = 17000  time[fs]=17.00000
O    1.140248870   0.133720995  -0.169420426
O   -1.252358730  -0.347959693   0.106793010
C   -0.218929792   0.223603585  -0.187309329
H   -0.154785145   1.105452700   0.547549072
H    1.737766940  -0.728913455  -0.852113859
5
# iter = 17500  time[fs]=17.50000
O    1.132596780   0.141008403  -0.163394901
O   -1.257743190  -0.342725014   0.101862800
C   -0.210177024   0.231687911  -0.202766376
H   -0.158559290   1.121054310   0.560009865
H    1.772275230  -0.679212457  -0.887513676
5
# iter = 18000  time[fs]=18.00000
O    1.128021850   0.147560549  -0.158505229
O   -1.260934120  -0.335169510   0.095191196
C   -0.200666523   0.241006919  -0.218359840
H   -0.161444478   1.150580980   0.577105035
H    1.808615970  -0.623016874  -0.921598553
5
# iter = 18500  time[fs]=18.50000
O    1.126685040   0.153813103  -0.154102898
O   -1.262137110  -0.325796869   0.086760769
C   -0.190646463   0.251122601  -0.233787507
H   -0.162391743   1.185774810   0.594601303
H    1.860406890  -0.571160127  -0.960357164
5
# iter = 19000  time[fs]=19.00000
O    1.128002820   0.159922844  -0.149946446
O   -1.261252530  -0.315438401   0.076624594
C   -0.180876880   0.261109964  -0.248864966
H   -0.164428989   1.220979040   0.610865308
H    1.920309910  -0.531921185  -1.003398150
5
# iter = 19500  time[fs]=19.50000
O    1.132755590   0.166248427  -0.145973327
O   -1.258846270  -0.304692451   0.064997254
C   -0.172725318   0.271041821  -0.263669521
H   -0.172495405   1.256821460   0.625829873
H    1.973157130  -0.497604305  -1.045303240
5
# iter = 20000  time[fs]=20.00000
O    1.140601430   0.173482253  -0.141853028
O   -1.255143110  -0.293814336   0.051693191
C   -0.166485279   0.281524668  -0.278403603
H   -0.188163081   1.305145980   0.644965070
H    2.021497360  -0.462065268  -1.087484520
5
# iter = 20500  time[fs]=20.50000
O    1.151374210   0.182399729  -0.137156558
O   -1.250006640  -0.282815220   0.036535760
C   -0.160304433   0.292698784  -0.293369982
H   -0.205355034   1.376305240   0.673349964
H    2.076418550  -0.424317734  -1.134231060
5
# iter = 21000  time[fs]=21.00000
O    1.165412500   0.193398461  -0.131429645
O   -1.243490100  -0.272556193   0.019693130
C   -0.153077889   0.303941571  -0.308205970
H   -0.216184044   1.458757810   0.706882301
H    2.152545300  -0.389085347  -1.190996460
5
# iter = 21500  time[fs]=21.50000
O    1.181849040   0.206081869  -0.124203950
O   -1.235380180  -0.263900303   0.002235679
C   -0.145485915   0.314217907  -0.322801837
H   -0.222756676   1.539626150   0.740795081
H    2.248252170  -0.367555023  -1.257910500
5
# iter = 22000  time[fs]=22.00000
O    1.199648630   0.220923611  -0.115499447
O   -1.226867500  -0.257079396  -0.014999339
C   -0.138759564   0.323172692  -0.336994657
H   -0.232540241   1.618987420   0.776325165
H    2.345838100  -0.357667244  -1.328975610
5
# iter = 22500  time[fs]=22.50000
O    1.217933640   0.238942810  -0.105351662
O   -1.219205430  -0.252619322  -0.031070947
C   -0.132834932   0.332311881  -0.351198104
H   -0.252023895   1.707231370   0.816067445
H    2.437599900  -0.348249569  -1.400481410
5
# iter = 23000  time[fs]=23.00000
O    1.235622620   0.260336988  -0.093722298
O   -1.212208890  -0.250225134  -0.045529114
C   -0.126562058   0.342325687  -0.365713988
H   -0.276959649   1.818232140   0.864424409
H    2.530777750  -0.333148076  -1.474518850
5
# iter = 23500  time[fs]=23.50000
O    1.252221510   0.284782165  -0.080493502
O   -1.205693750  -0.250278016  -0.057622454
C   -0.118323714   0.352989140  -0.380364761
H   -0.296825159   1.946167450   0.919317755
H    2.638236910  -0.314016246  -1.554532350
5
# iter = 24000  time[fs]=24.00000
O    1.267817160   0.310172332  -0.065284683
O   -1.199722060  -0.252722877  -0.066907161
C   -0.108462731   0.363147568  -0.394586245
H   -0.310496060   2.075563090   0.976715007
H    2.762605010  -0.301303918  -1.641112970
5
# iter = 24500  time[fs]=24.50000
O    1.282137820   0.334802090  -0.047732662
O   -1.194750810  -0.257533633  -0.073640497
C   -0.098095392   0.371649184  -0.408216464
H   -0.324300722   2.204691360   1.037212020
H    2.893515570  -0.299521564  -1.732201490
5
# iter = 25000  time[fs]=25.00000
O    1.294975380   0.357477097  -0.027725962
O   -1.191614120  -0.264952349  -0.078849443
C   -0.088076141   0.378689786  -0.421159472
H   -0.342544034   2.337658870   1.101679560
H    3.020911930  -0.301915196  -1.825391170
5
# iter = 25500  time[fs]=25.50000
O    1.306519980   0.377632110  -0.006359857
O   -1.190202560  -0.274174816  -0.082675610
C   -0.078245190   0.385267048  -0.433495113
H   -0.364999137   2.479814470   1.170362490
H    3.146906560  -0.300640636  -1.920526400
5
# iter = 26000  time[fs]=26.00000
O    1.317053020   0.395254159   0.015306910
O   -1.190260160  -0.284328600  -0.084752183
C   -0.067656529   0.391340353  -0.445451214
H   -0.387031845   2.631460640   1.242829490
H    3.279524030  -0.295052381  -2.018836120
5
# iter = 26500  time[fs]=26.50000
O    1.327133380   0.410829665   0.035593683
O   -1.191230010  -0.295493554  -0.085198030
C   -0.056264550   0.396407732  -0.457170140
H   -0.406279624   2.787231030   1.318033830
H    3.422191100  -0.290648644  -2.120491340
5
# iter = 27000  time[fs]=27.00000
O    1.336421480   0.424760802   0.052969141
O   -1.193212340  -0.307708308  -0.084405020
C   -0.044358878   0.400079869  -0.468663658
H   -0.425074638   2.943460930   1.395498380
H    3.570929450  -0.291924311  -2.225043130
5
# iter = 27500  time[fs]=27.50000
O    1.345299800   0.437273546   0.066623441
O   -1.196482220  -0.319997691  -0.082861801
C   -0.033400900   0.402540844  -0.480257893
H   -0.446679431   3.100933090   1.475129800
H    3.720041280  -0.297284822  -2.331923230
5
# iter = 28000  time[fs]=28.00000
O    1.353817090   0.449220912   0.076015800
O   -1.200576970  -0.331246819  -0.080544169
C   -0.023361902   0.404265148  -0.491725893
H   -0.471509375   3.262414440   1.556717850
H    3.868614170  -0.302032465  -2.440873550
5
# iter = 28500  time[fs]=28.50000
O    1.362006530   0.461315602   0.080887226
O   -1.204992520  -0.340809697  -0.076935678
C   -0.013165094   0.405478537  -0.502949195
H   -0.497140614   3.429015810   1.640141670
H    4.019993830  -0.304203871  -2.551876750
5
# iter = 29000  time[fs]=29.00000
O    1.370311830   0.474060403   0.081216232
O   -1.209450970  -0.348500883  -0.071809193
C   -0.002453074   0.405955500  -0.513809879
H   -0.521630108   3.599096900   1.725233760
H    4.176777520  -0.305860694  -2.664908200
5
# iter = 29500  time[fs]=29.50000
O    1.379280220   0.487743305   0.077356297
O   -1.213261110  -0.354306042  -0.064915431
C    0.008125552   0.405755303  -0.524516327
H   -0.545481490   3.770438840   1.811781390
H    4.337931070  -0.309689508  -2.779771380
5
# iter = 30000  time[fs]=30.00000
O    1.389128370   0.503324208   0.069374830
O   -1.216318670  -0.358138629  -0.056572056
C    0.018238118   0.404474119  -0.534948130
H   -0.570306815   3.942612330   1.899750710
H    4.500801150  -0.315865443  -2.896231300
5
# iter = 30500  time[fs]=30.50000
O    1.399783110   0.521417970   0.057424601
O   -1.218752760  -0.360141935  -0.046473960
C    0.028126399   0.402680629  -0.544928612
H   -0.596710773   4.116778000   1.988957670
H    4.664244140  -0.322572287  -3.014119740
5
# iter = 31000  time[fs]=31.00000
O    1.411440140   0.542349749   0.042044414
O   -1.220682780  -0.360234312  -0.034318290
C    0.037958703   0.400484914  -0.554223373
H   -0.623970218   4.293584840   2.079326110
H    4.829181730  -0.328536689  -3.133371450
5
# iter = 31500  time[fs]=31.50000
O    1.424198710   0.566176324   0.024371181
O   -1.222022340  -0.358924713  -0.020711967
C    0.048017964   0.397808197  -0.562885366
H   -0.651192113   4.472696090   2.170785900
H    4.996755370  -0.334129430  -3.253957360
5
# iter = 32000  time[fs]=32.00000
O    1.437911100   0.591398543   0.005066907
O   -1.222379180  -0.356792056  -0.005993972
C    0.057707946   0.394864658  -0.570927212
H   -0.678284135   4.653204230   2.263246170
H    5.166926050  -0.340358924  -3.375758640
5
# iter = 32500  time[fs]=32.50000
O    1.452880790   0.616879807  -0.014475615
O   -1.221636840  -0.353476042   0.008780846
C    0.066679866   0.391386495  -0.578278160
H   -0.705736367   4.834715450   2.356615670
H    5.338856140  -0.347590164  -3.498722640
5
# iter = 33000  time[fs]=33.00000
O    1.469124170   0.641530982  -0.033370494
O   -1.220019110  -0.348829285   0.022650244
C    0.074893085   0.387074595  -0.584697603
H   -0.733889251   5.017428870   2.450840820
H    5.511903490  -0.355373947  -3.622735770
5
# iter = 33500  time[fs]=33.50000
O    1.486393970   0.664296066  -0.050803698
O   -1.217497490  -0.342757498   0.035435045
C    0.082988370   0.382458759  -0.590491332
H   -0.762585098   5.201586420   2.545863020
H    5.686127020  -0.363188696  -3.747721520
5
# iter = 34000  time[fs]=34.00000
O    1.504207560   0.684616175  -0.066442739
O   -1.214235370  -0.335448704   0.046521746
C    0.091278047   0.377602455  -0.595902082
H   -0.791494637   5.387154450   2.641629050
H    5.861828010  -0.371001832  -3.873650640
5
# iter = 34500  time[fs]=34.50000
O    1.521634150   0.702631359  -0.079976114
O   -1.210525260  -0.326784072   0.055509200
C    0.099624108   0.372315541  -0.600822916
H   -0.820525859   5.573822590   2.738057400
H    6.039061080  -0.379061502  -4.000472770
5
# iter = 35000  time[fs]=35.00000
O    1.537693540   0.718842691  -0.090947648
O   -1.206441060  -0.316820097   0.063584725
C    0.108151723   0.366712468  -0.605622780
H   -0.849748500   5.761417280   2.835141800
H    6.217592830  -0.387517709  -4.128143150
5
# iter = 35500  time[fs]=35.50000
O    1.551463880   0.733745837  -0.099559812
O   -1.202211210  -0.305903204   0.070810426
C    0.117003092   0.360739964  -0.610112067
H   -0.879243605   5.949898820   2.932798170
H    6.397186410  -0.396298235  -4.256587400
5
# iter = 36000  time[fs]=36.00000
O    1.562225570   0.747855302  -0.106089537
O   -1.197991810  -0.294624481   0.076913919
C    0.126083333   0.353970637  -0.614238053
H   -0.909038917   6.139302110   3.031009640
H    6.577762230  -0.405267173  -4.385776860
5
# iter = 36500  time[fs]=36.50000
O    1.569662100   0.761772561  -0.110642879
O   -1.194148860  -0.283763958   0.081967377
C    0.135590354   0.346813351  -0.618114719
H   -0.939056836   6.329589540   3.129739950
H    6.759347310  -0.414368452  -4.515660930
5
# iter = 37000  time[fs]=37.00000
O    1.573876730   0.776086507  -0.113059171
O   -1.190874940  -0.274245748   0.086363815
C    0.145973872   0.339656691  -0.621702027
H   -0.969254432   6.520693370   3.228958820
H    6.941926450  -0.423625725  -4.646208010
5
# iter = 37500  time[fs]=37.50000
O    1.574870200   0.791608697  -0.113595129
O   -1.188300230  -0.266532701   0.090012054
C    0.157152565   0.332490278  -0.625026599
H   -0.999646336   6.712510190   3.328601990
H    7.125427160  -0.433070280  -4.777368300
5
# iter = 38000  time[fs]=38.00000
O    1.572596190   0.809207308  -0.112501906
O   -1.186598040  -0.260566701   0.092668848
C    0.168860265   0.325051526  -0.628165265
H   -1.030248400   6.905010430   3.428673380
H    7.309767130  -0.442695738  -4.909119420
5
# iter = 38500  time[fs]=38.50000
O    1.567485240   0.830042497  -0.109981791
O   -1.186057420  -0.256547118   0.094545821
C    0.181256948   0.317375120  -0.631065498
H   -1.061026190   7.098158630   3.529160470
H    7.494895810  -0.452467986  -5.041427190
5
# iter = 39000  time[fs]=39.00000
O    1.559699290   0.853805467  -0.105881245
O   -1.186558660  -0.255192087   0.095844150
C    0.194680787   0.309955512  -0.633827057
H   -1.091963010   7.291928130   3.629996400
H    7.680765220  -0.462356883  -5.174250030
5
# iter = 39500  time[fs]=39.50000
O    1.549485040   0.880308186  -0.100614645
O   -1.188059940  -0.256375528   0.096249458
C    0.208878726   0.302717007  -0.636458618
H   -1.123036900   7.486294020   3.731185750
H    7.867362690  -0.472365416  -5.307577100
5
# iter = 40000  time[fs]=40.00000
O    1.537328100   0.908253560  -0.094349319
O   -1.190358030  -0.259736041   0.095273266
C    0.223118716   0.295615945  -0.638877050
H   -1.154215130   7.681191020   3.832726200
H    8.054645100  -0.482486214  -5.441377800
5
# iter = 40500  time[fs]=40.50000
O    1.523622560   0.935853189  -0.086940455
O   -1.193601210  -0.265218941   0.093558767
C    0.238245305   0.288782909  -0.641110906
H   -1.185517360   7.876605560   3.934556970
H    8.242576440  -0.492716134  -5.575631860
5
# iter = 41000  time[fs]=41.00000
O    1.508702850   0.961733251  -0.077828215
O   -1.197328680  -0.273258117   0.091600579
C    0.254353519   0.282410222  -0.643312449
H   -1.216949210   8.072507490   4.036685310
H    8.431107820  -0.503038924  -5.710307050
5
# iter = 41500  time[fs]=41.50000
O    1.493314430   0.985487224  -0.066834944
O   -1.201221720  -0.283009494   0.088988658
C    0.270892275   0.276097909  -0.645160668
H   -1.248498710   8.268875070   4.139111500
H    8.620229140  -0.513456138  -5.845388800
5
# iter = 42000  time[fs]=42.00000
O    1.478443060   1.007228570  -0.053698614
O   -1.205302620  -0.293858926   0.086110721
C    0.288230494   0.270246737  -0.646761055
H   -1.280186180   8.465666510   4.241779910
H    8.809897540  -0.523953510  -5.980856230
5
# iter = 42500  time[fs]=42.50000
O    1.465300740   1.028086800  -0.037937310
O   -1.209270810  -0.305134108   0.082920149
C    0.306015720   0.264418871  -0.648110104
H   -1.312016570   8.662881700   4.344706290
H    9.000097620  -0.534531694  -6.116685330
5
# iter = 43000  time[fs]=43.00000
O    1.454751220   1.048643220  -0.019836825
O   -1.212850540  -0.316130807   0.079378661
C    0.323842428   0.258699642  -0.649182682
H   -1.343954760   8.860498290   4.447895730
H    9.190793480  -0.545186237  -6.252869020
5
# iter = 43500  time[fs]=43.50000
O    1.446665580   1.069066460  -0.000295503
O   -1.215943030  -0.325856355   0.075539704
C    0.341786596   0.253195219  -0.649661232
H   -1.376014410   9.058500100   4.551298610
H    9.381972330  -0.555913363  -6.389384720
5
# iter = 44000  time[fs]=44.00000
O    1.441141270   1.089480280   0.019214044
O   -1.218455550  -0.333792622   0.071562710
C    0.360254879   0.248443696  -0.649634898
H   -1.408159200   9.256889940   4.654949900
H    9.573602030  -0.566707606  -6.526224280
5
# iter = 44500  time[fs]=44.50000
O    1.438352280   1.110288160   0.037138549
O   -1.220235550  -0.339781628   0.066487057
C    0.378513891   0.244147851  -0.649188379
H   -1.440393320   9.455672020   4.758846260
H    9.765679210  -0.577570552  -6.663371040
5
# iter = 45000  time[fs]=45.00000
O    1.438236880   1.132172220   0.052565794
O   -1.220949310  -0.343985364   0.060023842
C    0.396254015   0.240399869  -0.648069050
H   -1.472730840   9.654871370   4.862983640
H    9.958179060  -0.588504033  -6.800828230
5
# iter = 45500  time[fs]=45.50000
O    1.439939760   1.155978780   0.065169091
O   -1.220691850  -0.345909283   0.052772631
C    0.414410058   0.237505336  -0.646218030
H   -1.505173350   9.854527540   4.967410910
H   10.151103600  -0.599508164  -6.938582890
5
# iter = 46000  time[fs]=46.00000
O    1.443908280   1.181517540   0.075247740
O   -1.219405460  -0.345556008   0.044813342
C    0.432440497   0.235343465  -0.643718597
H   -1.537750270  10.054682900   5.072133500
H   10.344439800  -0.610588487  -7.076643180
5
# iter = 46500  time[fs]=46.50000
O    1.449956360   1.207883870   0.083005077
O   -1.217281910  -0.342713787   0.035872888
C    0.450514652   0.233840321  -0.640611213
H   -1.570470130  10.255372100   5.177175950
H   10.538202600  -0.621750156  -7.215014590
5
# iter = 47000  time[fs]=47.00000
O    1.458366200   1.233817210   0.089449080
O   -1.214345700  -0.337828857   0.025932276
C    0.468420110   0.232890001  -0.637247801
H   -1.603340390  10.456616700   5.282549060
H   10.732397900  -0.632997166  -7.353707240
5
# iter = 47500  time[fs]=47.50000
O    1.469046260   1.257765970   0.094796896
O   -1.210876680  -0.331311548   0.014966690
C    0.486488835   0.232457056  -0.633610749
H   -1.636357110  10.658413400   5.388249290
H   10.927033400  -0.644327885  -7.492723770
5
# iter = 48000  time[fs]=48.00000
O    1.481853770   1.279156570   0.098998760
O   -1.207232610  -0.323395768   0.003182965
C    0.505008846   0.232643824  -0.629531313
H   -1.669519780  10.860749200   5.494269240
H   11.122113100  -0.655742040  -7.632065140
5
# iter = 48500  time[fs]=48.50000
O    1.495975370   1.297994600   0.101850547
O   -1.203482310  -0.314193845  -0.008636030
C    0.524149742   0.233341906  -0.625107615
H   -1.702822710  11.063606400   5.600598320
H   11.317628400  -0.667236496  -7.771723610
5
# iter = 49000  time[fs]=49.00000
O    1.510574840   1.314861020   0.103181709
O   -1.199706520  -0.304373646  -0.019825035
C    0.543490422   0.234394550  -0.620434371
H   -1.736261270  11.266967700   5.707225920
H   11.513566200  -0.678808786  -7.911689230
5
# iter = 49500  time[fs]=49.50000
O    1.524210690   1.330252450   0.102590457
O   -1.196315640  -0.294461168  -0.030474905
C    0.563588379   0.236046998  -0.615358734
H   -1.769829450  11.470814200   5.814140570
H   11.709912400  -0.690455324  -8.051951750
5
# iter = 50000  time[fs]=50.00000
O    1.535811720   1.344787460   0.099858309
O   -1.193455730  -0.284943254  -0.039964979
C    0.584142708   0.238343509  -0.609906546
H   -1.803523730  11.675128900   5.921332850
H   11.906653600  -0.702173947  -8.192501660
5
# iter = 50500  time[fs]=50.50000
O    1.544395700   1.358982140   0.094667021
O   -1.191054790  -0.276184633  -0.047634568
C    0.605212421   0.241037147  -0.604225630
H   -1.837340340  11.879895100   6.028793860
H   12.103777000  -0.713962747  -8.333329790
5
# iter = 51000  time[fs]=51.00000
O    1.549265830   1.373028310   0.086639024
O   -1.189343490  -0.268842075  -0.053635187
C    0.626794084   0.244463181  -0.598158568
H   -1.871274390  12.085097200   6.136514470
H   12.301270300  -0.725819254  -8.474426690
5
# iter = 51500  time[fs]=51.50000
O    1.550561640   1.387258740   0.075539707
O   -1.188399590  -0.263497811  -0.058452315
C    0.648665287   0.248540486  -0.591933351
H   -1.905321560  12.290721100   6.244485450
H   12.499120600  -0.737740778  -8.615783840
5
# iter = 52000  time[fs]=52.00000
O    1.548460910   1.402224600   0.061559861
O   -1.188488000  -0.260314605  -0.062258938
C    0.671077084   0.253226649  -0.585561274
H   -1.939476510  12.496752500   6.352697850
H   12.697315400  -0.749724572  -8.757391800
5
# iter = 52500  time[fs]=52.50000
O    1.543526380   1.417991380   0.044468283
O   -1.189753260  -0.259415261  -0.065043123
C    0.693931716   0.258637149  -0.579035789
H   -1.973735990  12.703177400   6.461143610
H   12.895844600  -0.761768540  -8.899243350
5
# iter = 53000  time[fs]=53.00000
O    1.536260260   1.434505320   0.024768148
O   -1.191882960  -0.261277655  -0.066682565
C    0.717033129   0.264831851  -0.572408312
H   -2.008097130  12.909982900   6.569815590
H   13.094698500  -0.773871043  -9.041331740
5
# iter = 53500  time[fs]=53.50000
O    1.527275230   1.451974890   0.003488212
O   -1.194726280  -0.265708072  -0.067135553
C    0.740404107   0.271822894  -0.565531494
H   -2.042556850  13.117156100   6.678706450
H   13.293868100  -0.786030095  -9.183650360
5
# iter = 54000  time[fs]=54.00000
O    1.517071890   1.470555590  -0.017845495
O   -1.198236130  -0.272561411  -0.066903629
C    0.764113996   0.279377079  -0.558787866
H   -2.077111460  13.324686000   6.787808920
H   13.493342900  -0.798243554  -9.326191740
5
# iter = 54500  time[fs]=54.50000
O    1.506238250   1.490213410  -0.038530488
O   -1.202305660  -0.281579775  -0.066427518
C    0.788479232   0.287577089  -0.551934939
H   -2.111756390  13.532561600   6.897116420
H   13.693112800  -0.810509276  -9.468947760
5
# iter = 55000  time[fs]=55.00000
O    1.495390250   1.510285250  -0.057573332
O   -1.206645280  -0.292212731  -0.065656042
C    0.813556149   0.296530348  -0.545336573
H   -2.146488430  13.740772400   7.006622640
H   13.893168700  -0.822825458  -9.611911890
5
# iter = 55500  time[fs]=55.50000
O    1.485138060   1.530081390  -0.075130730
O   -1.210984720  -0.303681565  -0.064757537
C    0.839442624   0.305885587  -0.538737927
H   -2.181305740  13.949308700   7.116322560
H   14.093502600  -0.835191327  -9.755078460
5
# iter = 56000  time[fs]=56.00000
O    1.476265930   1.548658940  -0.091013532
O   -1.215071480  -0.314943590  -0.063690291
C    0.866118115   0.315781156  -0.532466304
H   -2.216205430  14.158160900   7.226209960
H   14.294105700  -0.847604985  -9.898441390
5
# iter = 56500  time[fs]=56.50000
O    1.469258760   1.565455670  -0.105556079
O   -1.218487120  -0.325082146  -0.062586566
C    0.893520176   0.325831401  -0.526371615
H   -2.251185220  14.367320300   7.336279850
H   14.494970400  -0.860065414 -10.041995000
5
# iter = 57000  time[fs]=57.00000
O    1.464656040   1.579921770  -0.118871805
O   -1.221033530  -0.333689061  -0.061533319
C    0.921301593   0.336152380  -0.520618330
H   -2.286243770  14.576777900   7.446526690
H   14.696089800  -0.872571353 -10.185735100
5
# iter = 57500  time[fs]=57.50000
O    1.462886090   1.591913200  -0.131346218
O   -1.222492310  -0.340011649  -0.060463570
C    0.949567725   0.346509911  -0.515142000
H   -2.321378600  14.786525100   7.556945700
H   14.897456700  -0.885121619 -10.329656300
5
# iter = 58000  time[fs]=58.00000
O    1.464187980   1.601652870  -0.143103238
O   -1.222904140  -0.343906971  -0.058931111
C    0.977916341   0.356967816  -0.510007550
H   -2.356588630  14.996554100   7.667532360
H   15.099065000  -0.897715323 -10.473754900
5
# iter = 58500  time[fs]=58.50000
O    1.468183950   1.609020110  -0.154656287
O   -1.222285230  -0.345375866  -0.057095162
C    1.006744120   0.367630987  -0.504977187
H   -2.391869910  15.206856300   7.778280980
H   15.300907200  -0.910350336 -10.618024500
5
# iter = 59000  time[fs]=59.00000
O    1.475256350   1.614754960  -0.166457336
O   -1.220495320  -0.344697565  -0.054537461
C    1.035401510   0.378161021  -0.500127870
H   -2.427223470  15.417425200   7.889188590
H   15.502979000  -0.923026953 -10.762463400
5
# iter = 59500  time[fs]=59.50000
O    1.484612170   1.618971290  -0.178730418
O   -1.217604630  -0.342078157  -0.051034196
C    1.064370910   0.388451146  -0.495520792
H   -2.462646260  15.628253100   8.000250110
H   15.705273400  -0.935743432 -10.907066000
5
# iter = 60000  time[fs]=60.00000
O    1.495795560   1.621828710  -0.191917823
O   -1.213917550  -0.337494700  -0.046741188
C    1.093504850   0.398690292  -0.491107968
H   -2.498136710  15.839333000   8.111461160
H   15.907784600  -0.948498654 -11.051828800
5
# iter = 60500  time[fs]=60.50000
O    1.507754480   1.623527000  -0.206500279
O   -1.209657110  -0.330979719  -0.041700749
C    1.123199790   0.408755867  -0.486784674
H   -2.533692530  16.050658300   8.222817930
H   16.110507100  -0.961291631 -11.196747100
5
# iter = 61000  time[fs]=61.00000
O    1.519758650   1.624416810  -0.222955579
O   -1.205099000  -0.322771291  -0.036327251
C    1.153057940   0.418503526  -0.482622969
H   -2.569313750  16.262222900   8.334317330
H   16.313436800  -0.974122145 -11.341818700
5
# iter = 61500  time[fs]=61.50000
O    1.530657720   1.624374910  -0.241537432
O   -1.200559210  -0.313131343  -0.030891943
C    1.183495660   0.428051173  -0.478459281
H   -2.604996690  16.474020200   8.445954430
H   16.516566800  -0.986988138 -11.487038200
5
# iter = 62000  time[fs]=62.00000
O    1.540110000   1.623746650  -0.262308199
O   -1.196331860  -0.302706628  -0.025497281
C    1.213983290   0.437210136  -0.474553745
H   -2.640739530  16.686044800   8.557725920
H   16.719891500  -0.999888801 -11.632401400
5
# iter = 62500  time[fs]=62.50000
O    1.547828600   1.622554420  -0.284939176
O   -1.192773850  -0.292297471  -0.020020315
C    1.244511780   0.446035719  -0.470697518
H   -2.676541130  16.898290600   8.669628340
H   16.923406900  -1.012823330 -11.777905500
5
# iter = 63000  time[fs]=63.00000
O    1.553710200   1.621197750  -0.308369927
O   -1.190207360  -0.282268530  -0.014212539
C    1.274843250   0.454110226  -0.467026492
H   -2.712400810  17.110752600   8.781659160
H   17.127108700  -1.025791480 -11.923547700
5
# iter = 63500  time[fs]=63.50000
O    1.557766540   1.619779480  -0.331150490
O   -1.188849270  -0.272709342  -0.007961705
C    1.304747130   0.461254849  -0.463567532
H   -2.748317550  17.323425200   8.893815160
H   17.330992900  -1.038792500 -12.069325200
5
# iter = 64000  time[fs]=64.00000
O    1.559885120   1.618510920  -0.352096360
O   -1.188789010  -0.263591066  -0.001365536
C    1.334023520   0.467002852  -0.460278164
H   -2.784290710  17.536303200   9.006093590
H   17.535056000  -1.051826010 -12.215235900
5
# iter = 64500  time[fs]=64.50000
O    1.559943430   1.617333300  -0.370356905
O   -1.190072180  -0.254759179   0.005249505
C    1.363003730   0.471138513  -0.457124922
H   -2.820319040  17.749381500   9.118491390
H   17.739294000  -1.064891210 -12.361276700
5
# iter = 65000  time[fs]=65.00000
O    1.557812590   1.616221490  -0.385374667
O   -1.192496280  -0.246194284   0.011493933
C    1.391980870   0.473469529  -0.454065802
H   -2.856401210  17.962655700   9.231005890
H   17.943702600  -1.077987460 -12.507444700
5
# iter = 65500  time[fs]=65.50000
O    1.553416600   1.615160410  -0.397052787
O   -1.195701380  -0.237860416   0.016962296
C    1.421041580   0.473846546  -0.451101579
H   -2.892535380  18.176121200   9.343634350
H   18.148277300  -1.091113930 -12.653736300
5
# iter = 66000  time[fs]=66.00000
O    1.546778010   1.614117380  -0.405909640
O   -1.199414330  -0.229731257   0.021290693
C    1.450119300   0.472233046  -0.448281397
H   -2.928719740  18.389773700   9.456374000
H   18.353013900  -1.104269680 -12.800148100
5
# iter = 66500  time[fs]=66.50000
O    1.537973760   1.613136160  -0.412473719
O   -1.203504600  -0.221637753   0.024185544
C    1.479233700   0.468434139  -0.445502533
H   -2.964952730  18.603609000   9.569222150
H   18.557908100  -1.117453900 -12.946677100
5
# iter = 67000  time[fs]=67.00000
O    1.527227420   1.612166660  -0.417115226
O   -1.207727800  -0.213734362   0.025484735
C    1.508523600   0.462457383  -0.442690228
H   -3.001233570  18.817622900   9.682176300
H   18.762956900  -1.130665990 -13.093321100
5
# iter = 67500  time[fs]=67.50000
O    1.515077970   1.611123200  -0.419897326
O   -1.211540730  -0.206108411   0.025218458
C    1.537897260   0.454457145  -0.439899565
H   -3.037561360  19.031811400   9.795234180
H   18.968157000  -1.143905360 -13.240077700