    11
 # iter =     0  time[fs]= 0.00000
   N -0.668466338E+00 -0.116463086E+01  0.250000000E+01
   N  0.668466338E+00 -0.116463086E+01  0.250000000E+01
   C -0.692277627E+00  0.124916000E+01  0.250000000E+01
   C  0.692277627E+00  0.124916000E+01  0.250000000E+01
   C -0.132315667E+01  0.433975300E-03  0.250000000E+01
   C  0.132315667E+01  0.433975300E-03  0.250000000E+01
   H -0.127180384E+01  0.216832769E+01  0.250000000E+01
   H  0.127180384E+01  0.216832769E+01  0.250000000E+01
   H -0.240769469E+01 -0.832907948E-01  0.250000000E+01
   H  0.240769469E+01 -0.832907948E-01  0.250000000E+01
  Xx  0.995812000E+00 -0.582098000E+00  0.200000000E+02
    11
 # iter =   250  time[fs]= 0.25000
   N -0.668479705E+00 -0.116465046E+01  0.249999727E+01
   N  0.668478311E+00 -0.116465046E+01  0.249999694E+01
   C -0.692273146E+00  0.124914014E+01  0.249999689E+01
   C  0.692271618E+00  0.124914021E+01  0.249999657E+01
   C -0.132313070E+01  0.429425506E-03  0.249999663E+01
   C  0.132312898E+01  0.429447865E-03  0.249999599E+01
   H -0.127181458E+01  0.216833630E+01  0.249997470E+01
   H  0.127180991E+01  0.216833607E+01  0.249997219E+01
   H -0.240778897E+01 -0.832951807E-01  0.249997428E+01
   H  0.240778333E+01 -0.832948473E-01  0.249996900E+01
  Xx  0.995823341E+00 -0.582105750E+00  0.835703953E+01
    11
 # iter =   500  time[fs]= 0.50000
   N -0.668811360E+00 -0.116480508E+01  0.250001354E+01
   N  0.667739298E+00 -0.116630740E+01  0.249990783E+01
   C -0.692311086E+00  0.124911650E+01  0.250001180E+01
   C  0.692190898E+00  0.124930045E+01  0.250000668E+01
   C -0.132314001E+01  0.492119809E-03  0.250001242E+01
   C  0.132385540E+01  0.179767229E-02  0.249989272E+01
   H -0.127207055E+01  0.216872468E+01  0.249994610E+01
   H  0.127212091E+01  0.216891572E+01  0.249995660E+01
   H -0.240854130E+01 -0.833251516E-01  0.249995391E+01
   H  0.240976558E+01 -0.831665809E-01  0.249997678E+01
  Xx  0.996730144E+00 -0.582522375E+00 -0.328403681E+01
    11
 # iter =   750  time[fs]= 0.75000
   N -0.670005155E+00 -0.116570581E+01  0.250003138E+01
   N  0.666904258E+00 -0.117027299E+01  0.249996907E+01
   C -0.692555104E+00  0.124929915E+01  0.250003231E+01
   C  0.692160260E+00  0.124997611E+01  0.249998360E+01
   C -0.132352285E+01  0.823883245E-03  0.250004367E+01
   C  0.132579543E+01  0.471787142E-02  0.249981137E+01
   H -0.127383684E+01  0.217135369E+01  0.249995737E+01
   H  0.127414156E+01  0.217257740E+01  0.250002119E+01
   H -0.241276574E+01 -0.835923204E-01  0.250003890E+01
   H  0.241888209E+01 -0.828916290E-01  0.250047819E+01
  Xx  0.998615027E+00 -0.583407606E+00 -0.149254505E+02
    11
 # iter =  1000  time[fs]= 1.00000
   N -0.671526805E+00 -0.116768598E+01  0.250001340E+01
   N  0.666743646E+00 -0.117494694E+01  0.250005638E+01
   C -0.693076398E+00  0.125002183E+01  0.250010906E+01
   C  0.692675836E+00  0.125094226E+01  0.249998475E+01
   C -0.132461453E+01  0.151155407E-02  0.250006211E+01
   C  0.132798161E+01  0.772466441E-02  0.249971800E+01
   H -0.127824209E+01  0.217771207E+01  0.249995409E+01
   H  0.127798235E+01  0.217971052E+01  0.249985363E+01
   H -0.242235684E+01 -0.838519854E-01  0.249997027E+01
   H  0.243377923E+01 -0.829739135E-01  0.250093730E+01
  Xx  0.100053067E+01 -0.584318448E+00 -0.265670221E+02
    11
 # iter =  1250  time[fs]= 1.25000
   N -0.673561892E+00 -0.117045394E+01  0.250002846E+01
   N  0.666956168E+00 -0.118047181E+01  0.250004057E+01
   C -0.694003840E+00  0.125119113E+01  0.250020147E+01
   C  0.693585302E+00  0.125217888E+01  0.249998950E+01
   C -0.132617782E+01  0.228013005E-02  0.250013399E+01
   C  0.133072802E+01  0.110777295E-01  0.249968732E+01
   H -0.128528099E+01  0.218794387E+01  0.249995018E+01
   H  0.128437863E+01  0.219065231E+01  0.249950123E+01
   H -0.243793444E+01 -0.842759265E-01  0.249938641E+01
   H  0.245371004E+01 -0.834066942E-01  0.250138183E+01
  Xx  0.100244894E+01 -0.585231069E+00 -0.382086668E+02
    11
 # iter =  1500  time[fs]= 1.50000
   N -0.675855610E+00 -0.117422537E+01  0.250008249E+01
   N  0.667524448E+00 -0.118679110E+01  0.250001376E+01
   C -0.695280562E+00  0.125278056E+01  0.250032833E+01
   C  0.695035937E+00  0.125366658E+01  0.249996197E+01
   C -0.132822643E+01  0.326880236E-02  0.250020381E+01
   C  0.133403617E+01  0.147791473E-01  0.249964709E+01
   H -0.129516511E+01  0.220261910E+01  0.249988642E+01
   H  0.129315696E+01  0.220486927E+01  0.249910830E+01
   H -0.246001957E+01 -0.852135151E-01  0.249856168E+01
   H  0.247766207E+01 -0.840706086E-01  0.250183576E+01
  Xx  0.100436812E+01 -0.586144326E+00 -0.498503490E+02
    11
 # iter =  1750  time[fs]= 1.75000
   N -0.678516280E+00 -0.117881677E+01  0.250010929E+01
   N  0.668507452E+00 -0.119393520E+01  0.250004111E+01
   C -0.696807205E+00  0.125482640E+01  0.250043896E+01
   C  0.696796894E+00  0.125556132E+01  0.249992969E+01
   C -0.133071978E+01  0.449075829E-02  0.250030008E+01
   C  0.133783182E+01  0.186612593E-01  0.249957407E+01
   H -0.130696466E+01  0.222051352E+01  0.249985011E+01
   H  0.130369701E+01  0.222197555E+01  0.249894992E+01
   H -0.248806857E+01 -0.863514975E-01  0.249761961E+01
   H  0.250614633E+01 -0.851826943E-01  0.250229447E+01
  Xx  0.100628781E+01 -0.587057889E+00 -0.614920518E+02
    11
 # iter =  2000  time[fs]= 2.00000
   N -0.681724559E+00 -0.118414796E+01  0.250020472E+01
   N  0.669877586E+00 -0.120199616E+01  0.250005231E+01
   C -0.698544777E+00  0.125724652E+01  0.250051854E+01
   C  0.698575717E+00  0.125807167E+01  0.249992575E+01
   C -0.133364596E+01  0.586615946E-02  0.250039260E+01
   C  0.134219522E+01  0.226717779E-01  0.249945967E+01
   H -0.132042809E+01  0.224117219E+01  0.249974312E+01
   H  0.131609844E+01  0.224199394E+01  0.249885133E+01
   H -0.252025413E+01 -0.877230988E-01  0.249654015E+01
   H  0.253966927E+01 -0.867694371E-01  0.250294199E+01
  Xx  0.100820759E+01 -0.587971642E+00 -0.731337668E+02
    11
 # iter =  2250  time[fs]= 2.25000
   N -0.685169700E+00 -0.119036135E+01  0.250028490E+01
   N  0.671709385E+00 -0.121073415E+01  0.250006572E+01
   C -0.700462916E+00  0.126012217E+01  0.250062739E+01
   C  0.700607752E+00  0.126109596E+01  0.249989015E+01
   C -0.133722493E+01  0.748053779E-02  0.250049552E+01
   C  0.134694245E+01  0.266660116E-01  0.249937873E+01
   H -0.133559444E+01  0.226454507E+01  0.249984955E+01
   H  0.133038953E+01  0.226494575E+01  0.249883001E+01
   H -0.255611641E+01 -0.894026438E-01  0.249534295E+01
   H  0.257737129E+01 -0.886415215E-01  0.250341703E+01
  Xx  0.101012737E+01 -0.588885402E+00 -0.847754822E+02
    11
 # iter =  2500  time[fs]= 2.50000
   N -0.688774800E+00 -0.119743755E+01  0.250038362E+01
   N  0.673815391E+00 -0.122013674E+01  0.250000723E+01
   C -0.702495868E+00  0.126360652E+01  0.250072781E+01
   C  0.702843154E+00  0.126457640E+01  0.249985376E+01
   C -0.134149575E+01  0.920799073E-02  0.250061507E+01
   C  0.135210493E+01  0.306483441E-01  0.249931605E+01
   H -0.135253244E+01  0.229039328E+01  0.249974477E+01
   H  0.134643037E+01  0.229043466E+01  0.249865318E+01
   H -0.259540721E+01 -0.911824324E-01  0.249429593E+01
   H  0.261891567E+01 -0.908842628E-01  0.250396683E+01
  Xx  0.101204715E+01 -0.589799161E+00 -0.964171976E+02
    11
 # iter =  2750  time[fs]= 2.75000
   N -0.692681317E+00 -0.120528982E+01  0.250049537E+01
   N  0.676261791E+00 -0.123018985E+01  0.249992499E+01
   C -0.704800984E+00  0.126763022E+01  0.250081390E+01
   C  0.705267110E+00  0.126848207E+01  0.249985424E+01
   C -0.134632473E+01  0.109884705E-01  0.250070912E+01
   C  0.135776381E+01  0.347105217E-01  0.249926528E+01
   H -0.137077781E+01  0.231829234E+01  0.249954566E+01
   H  0.136399339E+01  0.231836327E+01  0.249853544E+01
   H -0.263803126E+01 -0.929356784E-01  0.249324036E+01
   H  0.266386492E+01 -0.934867740E-01  0.250471496E+01
  Xx  0.101396693E+01 -0.590712921E+00 -0.108058913E+03
    11
 # iter =  3000  time[fs]= 3.00000
   N -0.696847527E+00 -0.121392055E+01  0.250062017E+01
   N  0.679178247E+00 -0.124078591E+01  0.249983464E+01
   C -0.707159535E+00  0.127229427E+01  0.250091971E+01
   C  0.707864163E+00  0.127289626E+01  0.249979916E+01
   C -0.135173678E+01  0.128041944E-01  0.250081559E+01
   C  0.136393082E+01  0.386928717E-01  0.249924040E+01
   H -0.139024285E+01  0.234790827E+01  0.249939615E+01
   H  0.138255220E+01  0.234808130E+01  0.249845224E+01
   H -0.268441412E+01 -0.946127757E-01  0.249202318E+01
   H  0.271114096E+01 -0.965013177E-01  0.250548471E+01
  Xx  0.101588670E+01 -0.591626681E+00 -0.119700628E+03
    11
 # iter =  3250  time[fs]= 3.25000
   N -0.701514804E+00 -0.122320199E+01  0.250074898E+01
   N  0.682540568E+00 -0.125194599E+01  0.249971516E+01
   C -0.709564279E+00  0.127753454E+01  0.250103251E+01
   C  0.710443632E+00  0.127784604E+01  0.249975104E+01
   C -0.135760593E+01  0.146547891E-01  0.250095331E+01
   C  0.137069547E+01  0.426094872E-01  0.249919407E+01
   H -0.141050287E+01  0.237894620E+01  0.249927948E+01
   H  0.140236431E+01  0.237969255E+01  0.249840545E+01
   H -0.273413576E+01 -0.967057892E-01  0.249076995E+01
   H  0.276070212E+01 -0.999023875E-01  0.250632219E+01
  Xx  0.101780648E+01 -0.592540440E+00 -0.131342344E+03
    11
 # iter =  3500  time[fs]= 3.50000
   N -0.706524186E+00 -0.123318415E+01  0.250093870E+01
   N  0.686265503E+00 -0.126358445E+01  0.249959105E+01
   C -0.712184353E+00  0.128324869E+01  0.250109823E+01
   C  0.713249229E+00  0.128316890E+01  0.249970694E+01
   C -0.136399956E+01  0.165166248E-01  0.250106280E+01
   C  0.137797586E+01  0.466027846E-01  0.249914792E+01
   H -0.143173903E+01  0.241159130E+01  0.249911690E+01
   H  0.142331115E+01  0.241334121E+01  0.249857192E+01
   H -0.278646152E+01 -0.989320735E-01  0.248937622E+01
   H  0.281228629E+01 -0.103519863E+00  0.250723531E+01
  Xx  0.101972626E+01 -0.593454200E+00 -0.142984059E+03
    11
 # iter =  3750  time[fs]= 3.75000
   N -0.711635699E+00 -0.124389288E+01  0.250112437E+01
   N  0.690341775E+00 -0.127564126E+01  0.249947477E+01
   C -0.715005929E+00  0.128953004E+01  0.250115691E+01
   C  0.716361048E+00  0.128876492E+01  0.249965471E+01
   C -0.137106079E+01  0.185507042E-01  0.250118277E+01
   C  0.138558526E+01  0.505606764E-01  0.249909121E+01
   H -0.145393981E+01  0.244570344E+01  0.249891193E+01
   H  0.144542502E+01  0.244911158E+01  0.249875413E+01
   H -0.284104188E+01 -0.101204408E+00  0.248823446E+01
   H  0.286562906E+01 -0.107417960E+00  0.250795712E+01
  Xx  0.102164604E+01 -0.594367959E+00 -0.154625775E+03
    11
 # iter =  4000  time[fs]= 4.00000
   N -0.717131675E+00 -0.125509358E+01  0.250126958E+01
   N  0.694841465E+00 -0.128802974E+01  0.249936573E+01
   C -0.718021920E+00  0.129630268E+01  0.250119600E+01
   C  0.719639039E+00  0.129477704E+01  0.249962675E+01
   C -0.137862670E+01  0.204716714E-01  0.250134001E+01
   C  0.139364748E+01  0.544312574E-01  0.249904868E+01
   H -0.147712071E+01  0.248151106E+01  0.249857568E+01
   H  0.146867729E+01  0.248663883E+01  0.249920050E+01
   H -0.289722029E+01 -0.103572023E+00  0.248698436E+01
   H  0.292092874E+01 -0.111605596E+00  0.250863912E+01
  Xx  0.102356582E+01 -0.595281719E+00 -0.166267490E+03
    11
 # iter =  4250  time[fs]= 4.25000
   N -0.722896139E+00 -0.126671022E+01  0.250140213E+01
   N  0.699647657E+00 -0.130082067E+01  0.249926677E+01
   C -0.721421801E+00  0.130330485E+01  0.250120961E+01
   C  0.723204543E+00  0.130124694E+01  0.249958450E+01
   C -0.138665657E+01  0.224283684E-01  0.250149834E+01
   C  0.140215587E+01  0.582439832E-01  0.249899977E+01
   H -0.150133593E+01  0.251883584E+01  0.249829658E+01
   H  0.149280641E+01  0.252561855E+01  0.249972185E+01
   H -0.295479345E+01 -0.106120510E+00  0.248576234E+01
   H  0.297829669E+01 -0.116066342E+00  0.250924440E+01
  Xx  0.102548560E+01 -0.596195478E+00 -0.177909206E+03
    11
 # iter =  4500  time[fs]= 4.50000
   N -0.728949321E+00 -0.127862164E+01  0.250151951E+01
   N  0.704834415E+00 -0.131399752E+01  0.249912964E+01
   C -0.725018086E+00  0.131063274E+01  0.250122791E+01
   C  0.727105135E+00  0.130816725E+01  0.249953515E+01
   C -0.139520780E+01  0.243832216E-01  0.250166834E+01
   C  0.141103387E+01  0.620301373E-01  0.249899187E+01
   H -0.152634449E+01  0.255755780E+01  0.249816078E+01
   H  0.151753194E+01  0.256557770E+01  0.250033842E+01
   H -0.301375826E+01 -0.108881579E+00  0.248456096E+01
   H  0.303731432E+01 -0.120803791E+00  0.250981575E+01
  Xx  0.102740537E+01 -0.597109238E+00 -0.189550921E+03
    11
 # iter =  4750  time[fs]= 4.75000
   N -0.735201042E+00 -0.129090043E+01  0.250164267E+01
   N  0.710362381E+00 -0.132749495E+01  0.249903034E+01
   C -0.728966022E+00  0.131826896E+01  0.250122339E+01
   C  0.731274041E+00  0.131548546E+01  0.249945565E+01
   C -0.140423755E+01  0.264621408E-01  0.250185155E+01
   C  0.142031476E+01  0.657533890E-01  0.249898503E+01
   H -0.155192576E+01  0.259721397E+01  0.249782888E+01
   H  0.154297021E+01  0.260660388E+01  0.250096173E+01
   H -0.307409106E+01 -0.111901946E+00  0.248339943E+01
   H  0.309777616E+01 -0.125808012E+00  0.251039334E+01
  Xx  0.102932515E+01 -0.598022997E+00 -0.201192636E+03
    11
 # iter =  5000  time[fs]= 5.00000
   N -0.741647065E+00 -0.130352080E+01  0.250174563E+01
   N  0.716179660E+00 -0.134129040E+01  0.249891634E+01
   C -0.733205470E+00  0.132620575E+01  0.250121478E+01
   C  0.735518870E+00  0.132326631E+01  0.249940187E+01
   C -0.141372524E+01  0.285806565E-01  0.250202251E+01
   C  0.143005919E+01  0.693767211E-01  0.249900231E+01
   H -0.157790164E+01  0.263773262E+01  0.249741344E+01
   H  0.156905823E+01  0.264867715E+01  0.250182602E+01
   H -0.313566616E+01 -0.115176040E+00  0.248229292E+01
   H  0.315994928E+01 -0.130958628E+00  0.251101463E+01
  Xx  0.103124493E+01 -0.598936757E+00 -0.212834352E+03
    11
 # iter =  5250  time[fs]= 5.25000
   N -0.748290103E+00 -0.131639436E+01  0.250190710E+01
   N  0.722256054E+00 -0.135532196E+01  0.249876475E+01
   C -0.737681867E+00  0.133455836E+01  0.250119634E+01
   C  0.739962144E+00  0.133131790E+01  0.249934919E+01
   C -0.142358899E+01  0.307444887E-01  0.250218420E+01
   C  0.144016752E+01  0.728174811E-01  0.249898063E+01
   H -0.160434337E+01  0.267892890E+01  0.249705662E+01
   H  0.159593862E+01  0.269207903E+01  0.250275973E+01
   H -0.319855958E+01 -0.118620884E+00  0.248119069E+01
   H  0.322365841E+01 -0.136334451E+00  0.251154921E+01
  Xx  0.103316471E+01 -0.599850516E+00 -0.224476067E+03
    11
 # iter =  5500  time[fs]= 5.50000
   N -0.755079688E+00 -0.132948953E+01  0.250205970E+01
   N  0.728523655E+00 -0.136959191E+01  0.249863121E+01
   C -0.742474692E+00  0.134321101E+01  0.250120332E+01
   C  0.744671027E+00  0.133957962E+01  0.249930660E+01
   C -0.143380734E+01  0.328886335E-01  0.250233136E+01
   C  0.145063797E+01  0.761885234E-01  0.249895403E+01
   H -0.163133179E+01  0.272088801E+01  0.249679299E+01
   H  0.162389430E+01  0.273703477E+01  0.250377419E+01
   H -0.326276815E+01 -0.122229165E+00  0.248007745E+01
   H  0.328858555E+01 -0.141957840E+00  0.251198394E+01
  Xx  0.103508449E+01 -0.600764276E+00 -0.236117783E+03
    11
 # iter =  5750  time[fs]= 5.75000
   N -0.762140047E+00 -0.134263864E+01  0.250220141E+01
   N  0.735004725E+00 -0.138414427E+01  0.249854803E+01
   C -0.747513494E+00  0.135210878E+01  0.250119558E+01
   C  0.749497520E+00  0.134818443E+01  0.249923645E+01
   C -0.144422569E+01  0.348888766E-01  0.250248536E+01
   C  0.146144111E+01  0.794460254E-01  0.249890513E+01
   H -0.165877351E+01  0.276358066E+01  0.249652704E+01
   H  0.165261905E+01  0.278332543E+01  0.250477376E+01
   H -0.332847822E+01 -0.126041825E+00  0.247895236E+01
   H  0.335505262E+01 -0.147756338E+00  0.251236612E+01
  Xx  0.103700426E+01 -0.601678036E+00 -0.247759498E+03
    11
 # iter =  6000  time[fs]= 6.00000
   N -0.769352222E+00 -0.135594853E+01  0.250232301E+01
   N  0.741716027E+00 -0.139893067E+01  0.249849341E+01
   C -0.752709727E+00  0.136119068E+01  0.250121390E+01
   C  0.754446188E+00  0.135711417E+01  0.249917502E+01
   C -0.145492413E+01  0.368690100E-01  0.250260813E+01
   C  0.147258286E+01  0.824982732E-01  0.249886465E+01
   H -0.168687818E+01  0.280719579E+01  0.249635917E+01
   H  0.168198251E+01  0.283035736E+01  0.250575672E+01
   H -0.339575328E+01 -0.130235356E+00  0.247777759E+01
   H  0.342290522E+01 -0.153858268E+00  0.251272245E+01
  Xx  0.103892404E+01 -0.602591795E+00 -0.259401214E+03
    11
 # iter =  6250  time[fs]= 6.25000
   N -0.776607185E+00 -0.136949409E+01  0.250248253E+01
   N  0.748612644E+00 -0.141393190E+01  0.249842362E+01
   C -0.758013227E+00  0.137058012E+01  0.250118568E+01
   C  0.759538191E+00  0.136633013E+01  0.249915411E+01
   C -0.146603828E+01  0.388021734E-01  0.250270972E+01
   C  0.148400071E+01  0.853977857E-01  0.249882090E+01
   H -0.171562610E+01  0.285176012E+01  0.249610297E+01
   H  0.171174506E+01  0.287801355E+01  0.250671269E+01
   H -0.346443071E+01 -0.134582997E+00  0.247656428E+01
   H  0.349208967E+01 -0.160160116E+00  0.251308489E+01
  Xx  0.104084382E+01 -0.603505555E+00 -0.271042929E+03
    11
 # iter =  6500  time[fs]= 6.50000
   N -0.783975731E+00 -0.138321818E+01  0.250268769E+01
   N  0.755641739E+00 -0.142926022E+01  0.249832708E+01
   C -0.763309990E+00  0.138023699E+01  0.250117043E+01
   C  0.764740808E+00  0.137578930E+01  0.249913999E+01
   C -0.147750474E+01  0.406174185E-01  0.250280746E+01
   C  0.149570524E+01  0.883733349E-01  0.249873064E+01
   H -0.174479740E+01  0.289724737E+01  0.249593472E+01
   H  0.174190698E+01  0.292617297E+01  0.250759993E+01
   H -0.353447968E+01 -0.139213931E+00  0.247533259E+01
   H  0.356245118E+01 -0.166636685E+00  0.251337955E+01
  Xx  0.104276360E+01 -0.604419314E+00 -0.282684644E+03
    11
 # iter =  6750  time[fs]= 6.75000
   N -0.791391858E+00 -0.139713608E+01  0.250289682E+01
   N  0.762651097E+00 -0.144499664E+01  0.249821835E+01
   C -0.768721879E+00  0.139007571E+01  0.250116410E+01
   C  0.769996205E+00  0.138550959E+01  0.249909607E+01
   C -0.148926416E+01  0.424488569E-01  0.250289553E+01
   C  0.150777659E+01  0.913420842E-01  0.249871641E+01
   H -0.177456676E+01  0.294368110E+01  0.249571815E+01
   H  0.177244653E+01  0.297516092E+01  0.250852916E+01
   H -0.360571198E+01 -0.144074190E+00  0.247411504E+01
   H  0.363418505E+01 -0.173406583E+00  0.251373345E+01
  Xx  0.104468338E+01 -0.605333074E+00 -0.294326360E+03
    11
 # iter =  7000  time[fs]= 7.00000
   N -0.798943095E+00 -0.141121061E+01  0.250308550E+01
   N  0.769751769E+00 -0.146097866E+01  0.249809334E+01
   C -0.774249468E+00  0.140005038E+01  0.250119852E+01
   C  0.775393690E+00  0.139553543E+01  0.249903249E+01
   C -0.150118974E+01  0.441823024E-01  0.250297951E+01
   C  0.152019920E+01  0.941598835E-01  0.249871640E+01
   H -0.180488872E+01  0.299120210E+01  0.249541275E+01
   H  0.180323815E+01  0.302471644E+01  0.250941193E+01
   H -0.367847419E+01 -0.149267261E+00  0.247293563E+01
   H  0.370711579E+01 -0.180404368E+00  0.251413166E+01
  Xx  0.104660316E+01 -0.606246833E+00 -0.305968075E+03
    11
 # iter =  7250  time[fs]= 7.25000
   N -0.806593810E+00 -0.142550581E+01  0.250325032E+01
   N  0.777003732E+00 -0.147709715E+01  0.249797419E+01
   C -0.779803093E+00  0.141029342E+01  0.250123552E+01
   C  0.780795999E+00  0.140580432E+01  0.249895499E+01
   C -0.151334249E+01  0.457975766E-01  0.250306460E+01
   C  0.153284970E+01  0.968022769E-01  0.249872671E+01
   H -0.183575399E+01  0.303954603E+01  0.249506808E+01
   H  0.183444348E+01  0.307494719E+01  0.251026364E+01
   H -0.375280382E+01 -0.154696251E+00  0.247171949E+01
   H  0.378131074E+01 -0.187692808E+00  0.251450898E+01
  Xx  0.104852293E+01 -0.607160593E+00 -0.317609791E+03
    11
 # iter =  7500  time[fs]= 7.50000
   N -0.814206350E+00 -0.144006173E+01  0.250341891E+01
   N  0.784295727E+00 -0.149336080E+01  0.249782702E+01
   C -0.785452961E+00  0.142065809E+01  0.250128201E+01
   C  0.786318428E+00  0.141631204E+01  0.249889308E+01
   C -0.152566620E+01  0.473561399E-01  0.250316187E+01
   C  0.154568615E+01  0.993362603E-01  0.249873464E+01
   H -0.186723076E+01  0.308892583E+01  0.249468095E+01
   H  0.186605133E+01  0.312566116E+01  0.251108424E+01
   H -0.382866329E+01 -0.160468915E+00  0.247047800E+01
   H  0.385682707E+01 -0.195285112E+00  0.251487500E+01
  Xx  0.105044271E+01 -0.608074352E+00 -0.329251506E+03
    11
 # iter =  7750  time[fs]= 7.75000
   N -0.821813550E+00 -0.145491582E+01  0.250358973E+01
   N  0.791576710E+00 -0.150974412E+01  0.249769114E+01
   C -0.791332675E+00  0.143109908E+01  0.250127124E+01
   C  0.791948811E+00  0.142701155E+01  0.249884576E+01
   C -0.153809532E+01  0.490254405E-01  0.250327710E+01
   C  0.155872562E+01  0.101750853E+00  0.249875718E+01
   H -0.189908505E+01  0.313894446E+01  0.249423783E+01
   H  0.189822696E+01  0.317721571E+01  0.251184590E+01
   H -0.390606446E+01 -0.166518044E+00  0.246918360E+01
   H  0.393355931E+01 -0.203107555E+00  0.251522930E+01
  Xx  0.105236249E+01 -0.608988112E+00 -0.340893222E+03
    11
 # iter =  8000  time[fs]= 8.00000
   N -0.829448453E+00 -0.147000182E+01  0.250372667E+01
   N  0.798921587E+00 -0.152618762E+01  0.249757044E+01
   C -0.797318180E+00  0.144163957E+01  0.250130520E+01
   C  0.797516183E+00  0.143795556E+01  0.249881492E+01
   C -0.155070327E+01  0.507661627E-01  0.250342490E+01
   C  0.157204516E+01  0.103971741E+00  0.249871315E+01
   H -0.193128121E+01  0.318953526E+01  0.249387722E+01
   H  0.193083260E+01  0.322964809E+01  0.251260808E+01
   H -0.398466626E+01 -0.172821252E+00  0.246789562E+01
   H  0.401160222E+01 -0.211181665E+00  0.251556337E+01
  Xx  0.105428227E+01 -0.609901871E+00 -0.352534937E+03
    11
 # iter =  8250  time[fs]= 8.25000
   N -0.837253045E+00 -0.148520092E+01  0.250383640E+01
   N  0.806323538E+00 -0.154272086E+01  0.249746949E+01
   C -0.803298833E+00  0.145231883E+01  0.250131208E+01
   C  0.803062240E+00  0.144915311E+01  0.249881562E+01
   C -0.156341918E+01  0.523815916E-01  0.250354854E+01
   C  0.158566125E+01  0.106090144E+00  0.249869269E+01
   H -0.196386112E+01  0.324081782E+01  0.249349464E+01
   H  0.196388938E+01  0.328269923E+01  0.251340962E+01
   H -0.406457117E+01 -0.179430887E+00  0.246657872E+01
   H  0.409088759E+01 -0.219475731E+00  0.251591574E+01
  Xx  0.105620205E+01 -0.610815631E+00 -0.364176652E+03
    11
 # iter =  8500  time[fs]= 8.50000
   N -0.845065355E+00 -0.150052483E+01  0.250391949E+01
   N  0.813710757E+00 -0.155930507E+01  0.249741810E+01
   C -0.809320750E+00  0.146316305E+01  0.250132696E+01
   C  0.808673746E+00  0.146047478E+01  0.249880928E+01
   C -0.157631249E+01  0.538939048E-01  0.250370251E+01
   C  0.159945536E+01  0.108179725E+00  0.249864066E+01
   H -0.199688507E+01  0.329285995E+01  0.249312776E+01
   H  0.199748196E+01  0.333672530E+01  0.251413880E+01
   H -0.414577503E+01 -0.186275554E+00  0.246524660E+01
   H  0.417138259E+01 -0.228048140E+00  0.251623845E+01
  Xx  0.105812183E+01 -0.611729391E+00 -0.375818368E+03
    11
 # iter =  8750  time[fs]= 8.75000
   N -0.852859079E+00 -0.151597263E+01  0.250401939E+01
   N  0.821039228E+00 -0.157592567E+01  0.249737024E+01
   C -0.815293044E+00  0.147420602E+01  0.250134426E+01
   C  0.814248735E+00  0.147190804E+01  0.249883678E+01
   C -0.158939218E+01  0.552511638E-01  0.250381823E+01
   C  0.161341397E+01  0.110166890E+00  0.249857357E+01
   H -0.203052107E+01  0.334583398E+01  0.249273406E+01
   H  0.203169274E+01  0.339167050E+01  0.251483136E+01
   H -0.422811456E+01 -0.193362897E+00  0.246389612E+01
   H  0.425317359E+01 -0.236893697E+00  0.251653835E+01
  Xx  0.106004160E+01 -0.612643150E+00 -0.387460083E+03
    11
 # iter =  9000  time[fs]= 9.00000
   N -0.860581308E+00 -0.153144919E+01  0.250412888E+01
   N  0.828337783E+00 -0.159253489E+01  0.249729269E+01
   C -0.821258089E+00  0.148534890E+01  0.250137193E+01
   C  0.819790874E+00  0.148351572E+01  0.249885826E+01
   C -0.160263493E+01  0.565158817E-01  0.250395409E+01
   C  0.162752960E+01  0.111983896E+00  0.249850773E+01
   H -0.206472342E+01  0.339970160E+01  0.249232380E+01
   H  0.206643530E+01  0.344748668E+01  0.251545326E+01
   H -0.431156565E+01 -0.200667349E+00  0.246251711E+01
   H  0.433618312E+01 -0.246014529E+00  0.251682886E+01
  Xx  0.106196138E+01 -0.613556910E+00 -0.399101799E+03
    11
 # iter =  9250  time[fs]= 9.25000
   N -0.868214055E+00 -0.154692459E+01  0.250422976E+01
   N  0.835552269E+00 -0.160922045E+01  0.249722988E+01
   C -0.827378906E+00  0.149648089E+01  0.250136032E+01
   C  0.825416385E+00  0.149534858E+01  0.249890313E+01
   C -0.161600370E+01  0.577951706E-01  0.250407744E+01
   C  0.164178484E+01  0.113670475E+00  0.249843446E+01
   H -0.209946693E+01  0.345435448E+01  0.249188987E+01
   H  0.210159804E+01  0.350402483E+01  0.251608252E+01
   H -0.439618219E+01 -0.208276692E+00  0.246113930E+01
   H  0.442038756E+01 -0.255398929E+00  0.251712955E+01
  Xx  0.106388116E+01 -0.614470669E+00 -0.410743514E+03
    11
 # iter =  9500  time[fs]= 9.50000
   N -0.875794748E+00 -0.156237806E+01  0.250430774E+01
   N  0.842752301E+00 -0.162601259E+01  0.249720772E+01
   C -0.833529022E+00  0.150765650E+01  0.250136934E+01
   C  0.831090350E+00  0.150723936E+01  0.249894696E+01
   C -0.162953294E+01  0.590199020E-01  0.250419092E+01
   C  0.165609606E+01  0.115361494E+00  0.249834873E+01
   H -0.213472946E+01  0.350977850E+01  0.249141866E+01
   H  0.213730810E+01  0.356146480E+01  0.251674612E+01
   H -0.448186737E+01 -0.216110934E+00  0.245975148E+01
   H  0.450588262E+01 -0.265053339E+00  0.251745746E+01
  Xx  0.106580094E+01 -0.615384429E+00 -0.422385229E+03
    11
 # iter =  9750  time[fs]= 9.75000
   N -0.883391966E+00 -0.157779555E+01  0.250437166E+01
   N  0.849937885E+00 -0.164298098E+01  0.249719672E+01
   C -0.839659921E+00  0.151882626E+01  0.250135495E+01
   C  0.836797174E+00  0.151915096E+01  0.249901823E+01
   C -0.164319721E+01  0.602548370E-01  0.250434012E+01
   C  0.167051610E+01  0.117154855E+00  0.249821513E+01
   H -0.217052224E+01  0.356615526E+01  0.249091092E+01
   H  0.217354447E+01  0.361967838E+01  0.251738753E+01
   H -0.456862478E+01 -0.224169958E+00  0.245833294E+01
   H  0.459244358E+01 -0.274937063E+00  0.251778815E+01
  Xx  0.106772072E+01 -0.616298188E+00 -0.434026945E+03
    11
 # iter = 10000  time[fs]=10.00000
   N -0.890992202E+00 -0.159327521E+01  0.250442782E+01
   N  0.857130157E+00 -0.166007140E+01  0.249716194E+01
   C -0.845821034E+00  0.152991716E+01  0.250132133E+01
   C  0.842569466E+00  0.153113434E+01  0.249910332E+01
   C -0.165698830E+01  0.616205034E-01  0.250453840E+01
   C  0.168500596E+01  0.118919898E+00  0.249808575E+01
   H -0.220694034E+01  0.362351053E+01  0.249037679E+01
   H  0.221023094E+01  0.367864389E+01  0.251803860E+01
   H -0.465652466E+01 -0.232489575E+00  0.245691292E+01
   H  0.468009163E+01 -0.285075255E+00  0.251811342E+01
  Xx  0.106964049E+01 -0.617211948E+00 -0.445668660E+03
    11
 # iter = 10250  time[fs]=10.25000
   N -0.898691279E+00 -0.160874534E+01  0.250449761E+01
   N  0.864376224E+00 -0.167723408E+01  0.249710933E+01
   C -0.852016528E+00  0.154100830E+01  0.250128698E+01
   C  0.848361027E+00  0.154323330E+01  0.249921916E+01
   C -0.167083141E+01  0.629156899E-01  0.250471143E+01
   C  0.169950030E+01  0.120570215E+00  0.249794647E+01
   H -0.224382269E+01  0.368156817E+01  0.248982899E+01
   H  0.224743337E+01  0.373850262E+01  0.251871864E+01
   H -0.474541681E+01 -0.240993353E+00  0.245547289E+01
   H  0.476890443E+01 -0.295463329E+00  0.251843717E+01
  Xx  0.107156027E+01 -0.618125707E+00 -0.457310376E+03
    11
 # iter = 10500  time[fs]=10.50000
   N -0.906499238E+00 -0.162412843E+01  0.250456074E+01
   N  0.871676238E+00 -0.169445545E+01  0.249708138E+01
   C -0.858240906E+00  0.155207170E+01  0.250123742E+01
   C  0.854125032E+00  0.155547753E+01  0.249933233E+01
   C -0.168472527E+01  0.640776066E-01  0.250487991E+01
   C  0.171412240E+01  0.122088993E+00  0.249780416E+01
   H -0.228122186E+01  0.374049874E+01  0.248926352E+01
   H  0.228518762E+01  0.379911661E+01  0.251939456E+01
   H -0.483531503E+01 -0.249761468E+00  0.245401533E+01
   H  0.485871504E+01 -0.306087442E+00  0.251877325E+01
  Xx  0.107348005E+01 -0.619039467E+00 -0.468952091E+03
    11
 # iter = 10750  time[fs]=10.75000
   N -0.914383134E+00 -0.163948877E+01  0.250463116E+01
   N  0.879059806E+00 -0.171177502E+01  0.249704608E+01
   C -0.864539309E+00  0.156310245E+01  0.250121888E+01
   C  0.859938225E+00  0.156764566E+01  0.249945338E+01
   C -0.169867800E+01  0.651523000E-01  0.250501558E+01
   C  0.172879614E+01  0.123617014E+00  0.249763958E+01
   H -0.231927129E+01  0.380043347E+01  0.248871110E+01
   H  0.232343205E+01  0.386053658E+01  0.252007801E+01
   H -0.492620226E+01 -0.258780046E+00  0.245252011E+01
   H  0.494949309E+01 -0.316885255E+00  0.251913760E+01
  Xx  0.107539983E+01 -0.619953226E+00 -0.480593807E+03
    11
 # iter = 11000  time[fs]=11.00000
   N -0.922324304E+00 -0.165494885E+01  0.250468955E+01
   N  0.886447399E+00 -0.172921393E+01  0.249704500E+01
   C -0.870781624E+00  0.157421973E+01  0.250120546E+01
   C  0.865829372E+00  0.157970346E+01  0.249959004E+01
   C -0.171271276E+01  0.662150210E-01  0.250511660E+01
   C  0.174346173E+01  0.125225489E+00  0.249746588E+01
   H -0.235778932E+01  0.386124866E+01  0.248817246E+01
   H  0.236223746E+01  0.392280554E+01  0.252071628E+01
   H -0.501814050E+01 -0.268010495E+00  0.245100893E+01
   H  0.504121009E+01 -0.327885386E+00  0.251947321E+01
  Xx  0.107731961E+01 -0.620866986E+00 -0.492235522E+03
    11
 # iter = 11250  time[fs]=11.25000
   N -0.930291568E+00 -0.167052429E+01  0.250474635E+01
   N  0.893816603E+00 -0.174677682E+01  0.249704746E+01
   C -0.876909435E+00  0.158539731E+01  0.250119729E+01
   C  0.871756617E+00  0.159169478E+01  0.249967811E+01
   C -0.172689266E+01  0.672964661E-01  0.250523342E+01
   C  0.175806770E+01  0.126967824E+00  0.249733008E+01
   H -0.239676793E+01  0.392278656E+01  0.248762660E+01
   H  0.240152650E+01  0.398590299E+01  0.252136317E+01
   H -0.511098883E+01 -0.277435213E+00  0.244949760E+01
   H  0.513388903E+01 -0.339137800E+00  0.251981515E+01
  Xx  0.107923939E+01 -0.621780746E+00 -0.503877237E+03
    11
 # iter = 11500  time[fs]=11.50000
   N -0.938361865E+00 -0.168618317E+01  0.250480832E+01
   N  0.901215771E+00 -0.176438606E+01  0.249700979E+01
   C -0.882958057E+00  0.159655090E+01  0.250119667E+01
   C  0.877752680E+00  0.160366451E+01  0.249980834E+01
   C -0.174112021E+01  0.682822994E-01  0.250533337E+01
   C  0.177265183E+01  0.128799874E+00  0.249719695E+01
   H -0.243628768E+01  0.398522652E+01  0.248708447E+01
   H  0.244133440E+01  0.404970123E+01  0.252201297E+01
   H -0.520475520E+01 -0.287104991E+00  0.244795151E+01
   H  0.522748139E+01 -0.350595140E+00  0.252014493E+01
  Xx  0.108115916E+01 -0.622694505E+00 -0.515518953E+03
    11
 # iter = 11750  time[fs]=11.75000
   N -0.946475214E+00 -0.170189147E+01  0.250489742E+01
   N  0.908649174E+00 -0.178200319E+01  0.249695346E+01
   C -0.889031961E+00  0.160771646E+01  0.250118562E+01
   C  0.883803756E+00  0.161566227E+01  0.249990186E+01
   C -0.175539563E+01  0.691428176E-01  0.250543679E+01
   C  0.178727047E+01  0.130560346E+00  0.249708664E+01
   H -0.247639697E+01  0.404857997E+01  0.248650979E+01
   H  0.248161833E+01  0.411424507E+01  0.252269428E+01
   H -0.529944188E+01 -0.296991396E+00  0.244637086E+01
   H  0.532188823E+01 -0.362248185E+00  0.252046144E+01
  Xx  0.108307894E+01 -0.623608265E+00 -0.527160668E+03
    11
 # iter = 12000  time[fs]=12.00000
   N -0.954559328E+00 -0.171758747E+01  0.250503382E+01
   N  0.916094628E+00 -0.179962600E+01  0.249687777E+01
   C -0.895206852E+00  0.161886836E+01  0.250122156E+01
   C  0.889865617E+00  0.162766145E+01  0.249999026E+01
   C -0.176970742E+01  0.699391551E-01  0.250551075E+01
   C  0.180196779E+01  0.132237145E+00  0.249695675E+01
   H -0.251702054E+01  0.411269001E+01  0.248594629E+01
   H  0.252242591E+01  0.417960304E+01  0.252340067E+01
   H -0.539494784E+01 -0.307058637E+00  0.244477874E+01
   H  0.541718831E+01 -0.374121298E+00  0.252079228E+01
  Xx  0.108499872E+01 -0.624522024E+00 -0.538802384E+03
    11
 # iter = 12250  time[fs]=12.25000
   N -0.962677249E+00 -0.173335018E+01  0.250515644E+01
   N  0.923578953E+00 -0.181723235E+01  0.249681295E+01
   C -0.901440001E+00  0.162993332E+01  0.250130148E+01
   C  0.896010043E+00  0.163970273E+01  0.250001983E+01
   C -0.178400640E+01  0.707594254E-01  0.250554403E+01
   C  0.181665785E+01  0.133928360E+00  0.249686064E+01
   H -0.255813198E+01  0.417755447E+01  0.248539283E+01
   H  0.256376703E+01  0.424568048E+01  0.252408011E+01
   H -0.549125698E+01 -0.317330274E+00  0.244317658E+01
   H  0.551324988E+01 -0.386189397E+00  0.252111277E+01
  Xx  0.108691850E+01 -0.625435784E+00 -0.550444099E+03
    11
 # iter = 12500  time[fs]=12.50000
   N -0.970853544E+00 -0.174914649E+01  0.250526584E+01
   N  0.931100812E+00 -0.183483428E+01  0.249673116E+01
   C -0.907693938E+00  0.164095581E+01  0.250141841E+01
   C  0.902199817E+00  0.165171835E+01  0.250002643E+01
   C -0.179831957E+01  0.715022299E-01  0.250559546E+01
   C  0.183129924E+01  0.135672400E+00  0.249678677E+01
   H -0.259973447E+01  0.424321416E+01  0.248481724E+01
   H  0.260559254E+01  0.431256056E+01  0.252472378E+01
   H -0.558839948E+01 -0.327801778E+00  0.244156089E+01
   H  0.561011943E+01 -0.398466627E+00  0.252143593E+01
  Xx  0.108883828E+01 -0.626349543E+00 -0.562085815E+03
    11
 # iter = 12750  time[fs]=12.75000
   N -0.979069788E+00 -0.176496585E+01  0.250535595E+01
   N  0.938629164E+00 -0.185237693E+01  0.249665367E+01
   C -0.913918961E+00  0.165202130E+01  0.250155971E+01
   C  0.908487426E+00  0.166369731E+01  0.250003486E+01
   C -0.181264204E+01  0.722246952E-01  0.250562889E+01
   C  0.184592340E+01  0.137452355E+00  0.249670502E+01
   H -0.264180108E+01  0.430961369E+01  0.248423512E+01
   H  0.264789318E+01  0.438012728E+01  0.252531052E+01
   H -0.568634640E+01 -0.338459196E+00  0.243992739E+01
   H  0.570773711E+01 -0.410924583E+00  0.252177180E+01
  Xx  0.109075805E+01 -0.627263303E+00 -0.573727530E+03
    11
 # iter = 13000  time[fs]=13.00000
   N -0.987304282E+00 -0.178079857E+01  0.250545407E+01
   N  0.946159888E+00 -0.186986524E+01  0.249658639E+01
   C -0.920187290E+00  0.166310064E+01  0.250167215E+01
   C  0.914800295E+00  0.167565307E+01  0.250002612E+01
   C -0.182694427E+01  0.728175958E-01  0.250567900E+01
   C  0.186052598E+01  0.139196530E+00  0.249666688E+01
   H -0.268432479E+01  0.437672575E+01  0.248366884E+01
   H  0.269059627E+01  0.444843878E+01  0.252593961E+01
   H -0.578504855E+01 -0.349316618E+00  0.243827229E+01
   H  0.580609527E+01 -0.423586604E+00  0.252210275E+01
  Xx  0.109267783E+01 -0.628177062E+00 -0.585369245E+03
    11
 # iter = 13250  time[fs]=13.25000
   N -0.995564231E+00 -0.179654989E+01  0.250552300E+01
   N  0.953796094E+00 -0.188737498E+01  0.249651776E+01
   C -0.926473164E+00  0.167417528E+01  0.250178314E+01
   C  0.921114136E+00  0.168757077E+01  0.250004556E+01
   C -0.184118912E+01  0.734017950E-01  0.250572615E+01
   C  0.187510743E+01  0.140924210E+00  0.249661713E+01
   H -0.272724769E+01  0.444446659E+01  0.248308079E+01
   H  0.273376030E+01  0.451746049E+01  0.252660023E+01
   H -0.588446967E+01 -0.360341725E+00  0.243659890E+01
   H  0.590518923E+01 -0.436404707E+00  0.252243123E+01
  Xx  0.109459761E+01 -0.629090822E+00 -0.597010961E+03
    11
 # iter = 13500  time[fs]=13.50000
   N -0.100385986E+01 -0.181220019E+01  0.250558022E+01
   N  0.961475941E+00 -0.190494968E+01  0.249648287E+01
   C -0.932736116E+00  0.168523488E+01  0.250190588E+01
   C  0.927290258E+00  0.169948175E+01  0.250003078E+01
   C -0.185538864E+01  0.739729378E-01  0.250576430E+01
   C  0.188971097E+01  0.142671357E+00  0.249657157E+01
   H -0.277052935E+01  0.451280186E+01  0.248246830E+01
   H  0.277733301E+01  0.458716224E+01  0.252721456E+01
   H -0.598460611E+01 -0.371528641E+00  0.243491366E+01
   H  0.600498265E+01 -0.449395539E+00  0.252275571E+01
  Xx  0.109651739E+01 -0.630004581E+00 -0.608652676E+03
    11
 # iter = 13750  time[fs]=13.75000
   N -0.101211581E+01 -0.182780628E+01  0.250563769E+01
   N  0.969203292E+00 -0.192255111E+01  0.249646428E+01
   C -0.939033420E+00  0.169625384E+01  0.250203647E+01
   C  0.933454998E+00  0.171132997E+01  0.250000336E+01
   C -0.186952432E+01  0.745560052E-01  0.250579327E+01
   C  0.190433081E+01  0.144429907E+00  0.249652591E+01
   H -0.281422599E+01  0.458178327E+01  0.248185687E+01
   H  0.282134895E+01  0.465753424E+01  0.252781770E+01
   H -0.608540533E+01 -0.382900081E+00  0.243323982E+01
   H  0.610543779E+01 -0.462553125E+00  0.252309484E+01
  Xx  0.109843717E+01 -0.630918341E+00 -0.620294392E+03
    11
 # iter = 14000  time[fs]=14.00000
   N -0.102031368E+01 -0.184343535E+01  0.250569465E+01
   N  0.976972078E+00 -0.194012516E+01  0.249643042E+01
   C -0.945380243E+00  0.170719081E+01  0.250217724E+01
   C  0.939672084E+00  0.172311756E+01  0.250000046E+01
   C -0.188363594E+01  0.752233855E-01  0.250583111E+01
   C  0.191888402E+01  0.146155537E+00  0.249646813E+01
   H -0.285835101E+01  0.465137169E+01  0.248125076E+01
   H  0.286578014E+01  0.472850094E+01  0.252844263E+01
   H -0.618687993E+01 -0.394428064E+00  0.243157654E+01
   H  0.620649342E+01 -0.475882270E+00  0.252341934E+01
  Xx  0.110035695E+01 -0.631832101E+00 -0.631936107E+03
    11
 # iter = 14250  time[fs]=14.25000
   N -0.102845283E+01 -0.185909426E+01  0.250574772E+01
   N  0.984708695E+00 -0.195772359E+01  0.249640382E+01
   C -0.951721339E+00  0.171804084E+01  0.250227616E+01
   C  0.945958151E+00  0.173485994E+01  0.249997708E+01
   C -0.189776748E+01  0.759820210E-01  0.250586608E+01
   C  0.193335098E+01  0.147904430E+00  0.249643034E+01
   H -0.290284789E+01  0.472158711E+01  0.248065866E+01
   H  0.291049941E+01  0.480007329E+01  0.252907659E+01
   H -0.628897930E+01 -0.406099120E+00  0.242990336E+01
   H  0.630816977E+01 -0.489349305E+00  0.252373741E+01
  Xx  0.110227672E+01 -0.632745860E+00 -0.643577823E+03
    11
 # iter = 14500  time[fs]=14.50000
   N -0.103654363E+01 -0.187476189E+01  0.250580815E+01
   N  0.992444756E+00 -0.197538384E+01  0.249636360E+01
   C -0.957983371E+00  0.172889253E+01  0.250233979E+01
   C  0.952221308E+00  0.174653162E+01  0.249996257E+01
   C -0.191187681E+01  0.767601631E-01  0.250593280E+01
   C  0.194774755E+01  0.149649883E+00  0.249644129E+01
   H -0.294772740E+01  0.479238969E+01  0.248008363E+01
   H  0.295560244E+01  0.487219329E+01  0.252970846E+01
   H -0.639171757E+01 -0.417932841E+00  0.242821270E+01
   H  0.641043358E+01 -0.502980400E+00  0.252406145E+01
  Xx  0.110419650E+01 -0.633659620E+00 -0.655219538E+03
    11
 # iter = 14750  time[fs]=14.75000
   N -0.104462157E+01 -0.189040906E+01  0.250587153E+01
   N  0.100019943E+01 -0.199308477E+01  0.249630945E+01
   C -0.964167282E+00  0.173973534E+01  0.250245994E+01
   C  0.958494147E+00  0.175808115E+01  0.249993897E+01
   C -0.192599087E+01  0.774837664E-01  0.250599015E+01
   C  0.196212535E+01  0.151479224E+00  0.249643903E+01
   H -0.299295566E+01  0.486377948E+01  0.247948774E+01
   H  0.300104565E+01  0.494487643E+01  0.253032305E+01
   H -0.649507194E+01 -0.429909063E+00  0.242651529E+01
   H  0.651322442E+01 -0.516725868E+00  0.252438047E+01
  Xx  0.110611628E+01 -0.634573379E+00 -0.666861253E+03
    11
 # iter = 15000  time[fs]=15.00000
   N -0.105268921E+01 -0.190602641E+01  0.250595147E+01
   N  0.100795801E+01 -0.201082549E+01  0.249625518E+01
   C -0.970375563E+00  0.175054121E+01  0.250259905E+01
   C  0.964728537E+00  0.176950405E+01  0.249985051E+01
   C -0.194003515E+01  0.782002985E-01  0.250600120E+01
   C  0.197647746E+01  0.153402135E+00  0.249647620E+01
   H -0.303855771E+01  0.493573971E+01  0.247886810E+01
   H  0.304687890E+01  0.501810675E+01  0.253092247E+01
   H -0.659899145E+01 -0.442036638E+00  0.242481746E+01
   H  0.661659052E+01 -0.530602681E+00  0.252469689E+01
  Xx  0.110803606E+01 -0.635487139E+00 -0.678502969E+03
    11
 # iter = 15250  time[fs]=15.25000
   N -0.106071458E+01 -0.192162920E+01  0.250604216E+01
   N  0.101569502E+01 -0.202860233E+01  0.249621345E+01
   C -0.976537984E+00  0.176128127E+01  0.250271665E+01
   C  0.970951974E+00  0.178081880E+01  0.249977561E+01
   C -0.195404816E+01  0.788837609E-01  0.250600555E+01
   C  0.199081701E+01  0.155398903E+00  0.249650233E+01
   H -0.308453149E+01  0.500824740E+01  0.247824145E+01
   H  0.309306076E+01  0.509189961E+01  0.253153653E+01
   H -0.670348396E+01 -0.454302590E+00  0.242310759E+01
   H  0.672045341E+01 -0.544640104E+00  0.252501158E+01
  Xx  0.110995584E+01 -0.636400898E+00 -0.690144684E+03
    11
 # iter = 15500  time[fs]=15.50000
   N -0.106868545E+01 -0.193725876E+01  0.250610946E+01
   N  0.102335732E+01 -0.204639082E+01  0.249617046E+01
   C -0.982694758E+00  0.177196934E+01  0.250286254E+01
   C  0.977152022E+00  0.179204659E+01  0.249971735E+01
   C -0.196800726E+01  0.795398984E-01  0.250599531E+01
   C  0.200513213E+01  0.157502269E+00  0.249654053E+01
   H -0.313082098E+01  0.508130207E+01  0.247759735E+01
   H  0.313955320E+01  0.516621259E+01  0.253218001E+01
   H -0.680852448E+01 -0.466702917E+00  0.242138066E+01
   H  0.682485182E+01 -0.558799826E+00  0.252533236E+01
  Xx  0.111187562E+01 -0.637314658E+00 -0.701786400E+03
    11
 # iter = 15750  time[fs]=15.75000
   N -0.107658438E+01 -0.195292270E+01  0.250617071E+01
   N  0.103097192E+01 -0.206411693E+01  0.249612789E+01
   C -0.988768934E+00  0.178263273E+01  0.250299784E+01
   C  0.983323684E+00  0.180320675E+01  0.249964579E+01
   C -0.198196246E+01  0.802305043E-01  0.250600290E+01
   C  0.201939148E+01  0.159645723E+00  0.249658085E+01
   H -0.317741508E+01  0.515487196E+01  0.247693672E+01
   H  0.318635053E+01  0.524099592E+01  0.253281575E+01
   H -0.691409764E+01 -0.479227508E+00  0.241965212E+01
   H  0.692972099E+01 -0.573070189E+00  0.252564734E+01
  Xx  0.111379539E+01 -0.638228417E+00 -0.713428115E+03
    11
 # iter = 16000  time[fs]=16.00000
   N -0.108443512E+01 -0.196866480E+01  0.250624983E+01
   N  0.103849936E+01 -0.208175118E+01  0.249607994E+01
   C -0.994772710E+00  0.179320305E+01  0.250312760E+01
   C  0.989459160E+00  0.181428838E+01  0.249957287E+01
   C -0.199589276E+01  0.809163794E-01  0.250599291E+01
   C  0.203366592E+01  0.161859727E+00  0.249661197E+01
   H -0.322433206E+01  0.522899192E+01  0.247628312E+01
   H  0.323347474E+01  0.531632559E+01  0.253343222E+01
   H -0.702019664E+01 -0.491895981E+00  0.241791786E+01
   H  0.703509000E+01 -0.587476745E+00  0.252597621E+01
  Xx  0.111571517E+01 -0.639142177E+00 -0.725069830E+03
    11
 # iter = 16250  time[fs]=16.25000
   N -0.109216700E+01 -0.198451233E+01  0.250633722E+01
   N  0.104596700E+01 -0.209930215E+01  0.249602345E+01
   C -0.100076238E+01  0.180371157E+01  0.250326545E+01
   C  0.995586917E+00  0.182529220E+01  0.249953061E+01
   C -0.200982779E+01  0.816564778E-01  0.250599067E+01
   C  0.204788066E+01  0.164137136E+00  0.249662281E+01
   H -0.327155600E+01  0.530357428E+01  0.247562204E+01
   H  0.328089384E+01  0.539210670E+01  0.253407542E+01
   H -0.712676230E+01 -0.504681529E+00  0.241617315E+01
   H  0.714089899E+01 -0.602007075E+00  0.252631172E+01
  Xx  0.111763495E+01 -0.640055936E+00 -0.736711546E+03
    11
 # iter = 16500  time[fs]=16.50000
   N -0.109978241E+01 -0.200042490E+01  0.250641497E+01
   N  0.105331576E+01 -0.211682283E+01  0.249594981E+01
   C -0.100680485E+01  0.181412377E+01  0.250342437E+01
   C  0.100171372E+01  0.183621677E+01  0.249941542E+01
   C -0.202370700E+01  0.824557132E-01  0.250597726E+01
   C  0.206210129E+01  0.166482655E+00  0.249668864E+01
   H -0.331908010E+01  0.537864356E+01  0.247493469E+01
   H  0.332863437E+01  0.546839651E+01  0.253475503E+01
   H -0.723382306E+01 -0.517603990E+00  0.241442487E+01
   H  0.724717246E+01 -0.616659412E+00  0.252664283E+01
  Xx  0.111955473E+01 -0.640969696E+00 -0.748353261E+03
    11
 # iter = 16750  time[fs]=16.75000
   N -0.110727483E+01 -0.201635048E+01  0.250647271E+01
   N  0.106058225E+01 -0.213431854E+01  0.249587434E+01
   C -0.101277119E+01  0.182451839E+01  0.250361378E+01
   C  0.100780464E+01  0.184706604E+01  0.249931715E+01
   C -0.203759547E+01  0.833021237E-01  0.250596615E+01
   C  0.207624176E+01  0.168887559E+00  0.249674341E+01
   H -0.336686782E+01  0.545416343E+01  0.247425874E+01
   H  0.337665138E+01  0.554508937E+01  0.253544607E+01
   H -0.734132911E+01 -0.530641803E+00  0.241267056E+01
   H  0.735388310E+01 -0.631431035E+00  0.252697591E+01
  Xx  0.112147451E+01 -0.641883456E+00 -0.759994977E+03
    11
 # iter = 17000  time[fs]=17.00000
   N -0.111471453E+01 -0.203221437E+01  0.250649939E+01
   N  0.106772622E+01 -0.215185846E+01  0.249580825E+01
   C -0.101871434E+01  0.183484878E+01  0.250381725E+01
   C  0.101387688E+01  0.185783149E+01  0.249919916E+01
   C -0.205141421E+01  0.841355772E-01  0.250595729E+01
   C  0.209038457E+01  0.171320781E+00  0.249682209E+01
   H -0.341498208E+01  0.553011140E+01  0.247359955E+01
   H  0.342494857E+01  0.562222790E+01  0.253613477E+01
   H -0.744930505E+01 -0.543798100E+00  0.241090731E+01
   H  0.746103397E+01 -0.646318159E+00  0.252731583E+01
  Xx  0.112339428E+01 -0.642797215E+00 -0.771636692E+03
    11
 # iter = 17250  time[fs]=17.25000
   N -0.112210330E+01 -0.204803836E+01  0.250650833E+01
   N  0.107478516E+01 -0.216946091E+01  0.249574669E+01
   C -0.102462762E+01  0.184515638E+01  0.250399003E+01
   C  0.101990638E+01  0.186850974E+01  0.249902795E+01
   C -0.206518892E+01  0.850026530E-01  0.250599067E+01
   C  0.210447583E+01  0.173811982E+00  0.249693409E+01
   H -0.346335855E+01  0.560649067E+01  0.247293196E+01
   H  0.347351114E+01  0.569980192E+01  0.253683621E+01
   H -0.755769828E+01 -0.557058408E+00  0.240914275E+01
   H  0.756864336E+01 -0.661332510E+00  0.252766606E+01
  Xx  0.112531406E+01 -0.643710975E+00 -0.783278408E+03
    11
 # iter = 17500  time[fs]=17.50000
   N -0.112946181E+01 -0.206380153E+01  0.250650993E+01
   N  0.108176109E+01 -0.218711070E+01  0.249568188E+01
   C -0.103055635E+01  0.185541178E+01  0.250415682E+01
   C  0.102593166E+01  0.187908633E+01  0.249889709E+01
   C -0.207891453E+01  0.858945130E-01  0.250597334E+01
   C  0.211855000E+01  0.176370666E+00  0.249705321E+01
   H -0.351197925E+01  0.568325892E+01  0.247226989E+01
   H  0.352234317E+01  0.577779597E+01  0.253754901E+01
   H -0.766652483E+01 -0.570421272E+00  0.240737542E+01
   H  0.767666143E+01 -0.676466158E+00  0.252801150E+01
  Xx  0.112723384E+01 -0.644624734E+00 -0.794920123E+03
    11
 # iter = 17750  time[fs]=17.75000
   N -0.113676933E+01 -0.207954559E+01  0.250650882E+01
   N  0.108865474E+01 -0.220479694E+01  0.249560884E+01
   C -0.103648250E+01  0.186559732E+01  0.250432491E+01
   C  0.103190892E+01  0.188959094E+01  0.249879696E+01
   C -0.209261084E+01  0.868502289E-01  0.250599515E+01
   C  0.213259493E+01  0.178963242E+00  0.249714446E+01
   H -0.356088726E+01  0.576042891E+01  0.247161594E+01
   H  0.357144023E+01  0.585622062E+01  0.253824303E+01
   H -0.777575694E+01 -0.583881177E+00  0.240560959E+01
   H  0.778509122E+01 -0.691712120E+00  0.252835874E+01
  Xx  0.112915362E+01 -0.645538494E+00 -0.806561838E+03
    11
 # iter = 18000  time[fs]=18.00000
   N -0.114403604E+01 -0.209527932E+01  0.250650326E+01
   N  0.109549594E+01 -0.222252285E+01  0.249555088E+01
   C -0.104238913E+01  0.187573642E+01  0.250445048E+01
   C  0.103788517E+01  0.190003794E+01  0.249870201E+01
   C -0.210624688E+01  0.878395748E-01  0.250601486E+01
   C  0.214661029E+01  0.181588424E+00  0.249724345E+01
   H -0.361000191E+01  0.583798757E+01  0.247094467E+01
   H  0.362074878E+01  0.593500197E+01  0.253893913E+01
   H -0.788541984E+01 -0.597447844E+00  0.240383179E+01
   H  0.789391654E+01 -0.707067128E+00  0.252871364E+01
  Xx  0.113107340E+01 -0.646452253E+00 -0.818203554E+03
    11
 # iter = 18250  time[fs]=18.25000
   N -0.115129577E+01 -0.211099022E+01  0.250649127E+01
   N  0.110227345E+01 -0.224028859E+01  0.249550373E+01
   C -0.104830834E+01  0.188581636E+01  0.250461363E+01
   C  0.104384762E+01  0.191042645E+01  0.249858075E+01
   C -0.211984191E+01  0.889050241E-01  0.250603489E+01
   C  0.216053848E+01  0.184285150E+00  0.249733254E+01
   H -0.365937012E+01  0.591592737E+01  0.247027090E+01
   H  0.367029438E+01  0.601417720E+01  0.253964947E+01
   H -0.799546996E+01 -0.611116309E+00  0.240203742E+01
   H  0.800316928E+01 -0.722537289E+00  0.252906366E+01
  Xx  0.113299318E+01 -0.647366013E+00 -0.829845269E+03
    11
 # iter = 18500  time[fs]=18.50000
   N -0.115855830E+01 -0.212670572E+01  0.250647932E+01
   N  0.110898111E+01 -0.225806070E+01  0.249547427E+01
   C -0.105420841E+01  0.189582201E+01  0.250478810E+01
   C  0.104983822E+01  0.192074475E+01  0.249844112E+01
   C -0.213338043E+01  0.900142072E-01  0.250603318E+01
   C  0.217442372E+01  0.187011416E+00  0.249744496E+01
   H -0.370897466E+01  0.599424203E+01  0.246959201E+01
   H  0.372004992E+01  0.609373520E+01  0.254034194E+01
   H -0.810592982E+01 -0.624896976E+00  0.240023297E+01
   H  0.811281582E+01 -0.738121571E+00  0.252941347E+01
  Xx  0.113491295E+01 -0.648279772E+00 -0.841486985E+03
    11
 # iter = 18750  time[fs]=18.75000
   N -0.116586273E+01 -0.214240327E+01  0.250646936E+01
   N  0.111567328E+01 -0.227582709E+01  0.249545991E+01
   C -0.106007649E+01  0.190577149E+01  0.250494320E+01
   C  0.105585012E+01  0.193102399E+01  0.249831582E+01
   C -0.214688664E+01  0.911407251E-01  0.250602953E+01
   C  0.218820630E+01  0.189787252E+00  0.249749834E+01
   H -0.375881567E+01  0.607293539E+01  0.246890907E+01
   H  0.377003556E+01  0.617366758E+01  0.254104164E+01
   H -0.821677308E+01 -0.638777231E+00  0.239842859E+01
   H  0.822285961E+01 -0.753818845E+00  0.252976611E+01
  Xx  0.113683273E+01 -0.649193532E+00 -0.853128700E+03
    11
 # iter = 19000  time[fs]=19.00000
   N -0.117321496E+01 -0.215810244E+01  0.250645384E+01
   N  0.112231226E+01 -0.229357090E+01  0.249543726E+01
   C -0.106591458E+01  0.191565108E+01  0.250509821E+01
   C  0.106185598E+01  0.194121751E+01  0.249821521E+01
   C -0.216033732E+01  0.922795900E-01  0.250603305E+01
   C  0.220199016E+01  0.192645947E+00  0.249757412E+01
   H -0.380887544E+01  0.615198754E+01  0.246822614E+01
   H  0.382023781E+01  0.625396355E+01  0.254176050E+01
   H -0.832801331E+01 -0.652769024E+00  0.239662394E+01
   H  0.833329139E+01 -0.769625469E+00  0.253012025E+01
  Xx  0.113875251E+01 -0.650107291E+00 -0.864770416E+03
    11
 # iter = 19250  time[fs]=19.25000
   N -0.118058362E+01 -0.217379055E+01  0.250643342E+01
   N  0.112891000E+01 -0.231128320E+01  0.249540994E+01
   C -0.107174087E+01  0.192551024E+01  0.250522735E+01
   C  0.106783206E+01  0.195131637E+01  0.249814178E+01
   C -0.217375279E+01  0.934278463E-01  0.250604857E+01
   C  0.221571434E+01  0.195584096E+00  0.249763556E+01
   H -0.385916067E+01  0.623139799E+01  0.246754297E+01
   H  0.387066337E+01  0.633461736E+01  0.254247854E+01
   H -0.843963686E+01 -0.666859334E+00  0.239481231E+01
   H  0.844410304E+01 -0.785534369E+00  0.253047505E+01
  Xx  0.114067229E+01 -0.651021051E+00 -0.876412131E+03
    11
 # iter = 19500  time[fs]=19.50000
   N -0.118797331E+01 -0.218950340E+01  0.250640355E+01
   N  0.113549059E+01 -0.232893423E+01  0.249539430E+01
   C -0.107751725E+01  0.193535981E+01  0.250534399E+01
   C  0.107382408E+01  0.196134104E+01  0.249806011E+01
   C -0.218709693E+01  0.945095510E-01  0.250606922E+01
   C  0.222939768E+01  0.198616365E+00  0.249768887E+01
   H -0.390965455E+01  0.631116136E+01  0.246684905E+01
   H  0.392128310E+01  0.641561387E+01  0.254319698E+01
   H -0.855166206E+01 -0.681052414E+00  0.239299507E+01
   H  0.855529215E+01 -0.801551120E+00  0.253083073E+01
  Xx  0.114259207E+01 -0.651934811E+00 -0.888053846E+03
    11
 # iter = 19750  time[fs]=19.75000
   N -0.119536704E+01 -0.220524923E+01  0.250635297E+01
   N  0.114203059E+01 -0.234656278E+01  0.249538505E+01
   C -0.108327029E+01  0.194520763E+01  0.250545998E+01
   C  0.107978415E+01  0.197126499E+01  0.249798061E+01
   C -0.220041230E+01  0.955333015E-01  0.250610021E+01
   C  0.224302896E+01  0.201707395E+00  0.249776008E+01
   H -0.396035980E+01  0.639126410E+01  0.246614516E+01
   H  0.397211812E+01  0.649698463E+01  0.254391616E+01
   H -0.866406795E+01 -0.695349045E+00  0.239117299E+01
   H  0.866685476E+01 -0.817681266E+00  0.253118524E+01
  Xx  0.114451184E+01 -0.652848570E+00 -0.899695562E+03
    11
 # iter = 20000  time[fs]=20.00000
   N -0.120276615E+01 -0.222102765E+01  0.250628152E+01
   N  0.114856162E+01 -0.236415054E+01  0.249539349E+01
   C -0.108897569E+01  0.195503552E+01  0.250555603E+01
   C  0.108573676E+01  0.198110807E+01  0.249787360E+01
   C -0.221367777E+01  0.965644030E-01  0.250614364E+01
   C  0.225660374E+01  0.204887104E+00  0.249785034E+01
   H -0.401127046E+01  0.647166996E+01  0.246545329E+01
   H  0.402315929E+01  0.657866466E+01  0.254463716E+01
   H -0.877684790E+01 -0.709741155E+00  0.238934058E+01
   H  0.877878951E+01 -0.833911774E+00  0.253153909E+01
  Xx  0.114643162E+01 -0.653762330E+00 -0.911337277E+03
    11
 # iter = 20250  time[fs]=20.25000
   N -0.121021162E+01 -0.223682110E+01  0.250618553E+01
   N  0.115507864E+01 -0.238170238E+01  0.249540656E+01
   C -0.109462446E+01  0.196479165E+01  0.250565171E+01
   C  0.109165104E+01  0.199091165E+01  0.249778471E+01
   C -0.222695613E+01  0.976204137E-01  0.250618213E+01
   C  0.227014925E+01  0.208081657E+00  0.249791517E+01
   H -0.406238106E+01  0.655240418E+01  0.246475937E+01
   H  0.407439975E+01  0.666070394E+01  0.254535953E+01
   H -0.888998098E+01 -0.724226747E+00  0.238749977E+01
   H  0.889109943E+01 -0.850238661E+00  0.253189279E+01
  Xx  0.114835140E+01 -0.654676089E+00 -0.922978993E+03
    11
 # iter = 20500  time[fs]=20.50000
   N -0.121764888E+01 -0.225265533E+01  0.250608124E+01
   N  0.116158028E+01 -0.239926905E+01  0.249541556E+01
   C -0.110024172E+01  0.197445191E+01  0.250576388E+01
   C  0.109754717E+01  0.200067595E+01  0.249770587E+01
   C -0.224018192E+01  0.987602725E-01  0.250621223E+01
   C  0.228362666E+01  0.211351353E+00  0.249799603E+01
   H -0.411367946E+01  0.663343972E+01  0.246406221E+01
   H  0.412581281E+01  0.674304256E+01  0.254608548E+01
   H -0.900346949E+01 -0.738808118E+00  0.238565149E+01
   H  0.900377530E+01 -0.866664330E+00  0.253224827E+01
  Xx  0.115027118E+01 -0.655589849E+00 -0.934620708E+03
    11
 # iter = 20750  time[fs]=20.75000
   N -0.122506873E+01 -0.226852729E+01  0.250598402E+01
   N  0.116807843E+01 -0.241685613E+01  0.249542306E+01
   C -0.110583428E+01  0.198400258E+01  0.250588268E+01
   C  0.110344583E+01  0.201038853E+01  0.249763498E+01
   C -0.225340240E+01  0.999454260E-01  0.250623753E+01
   C  0.229704647E+01  0.214652848E+00  0.249806794E+01
   H -0.416517247E+01  0.671480551E+01  0.246337981E+01
   H  0.417743070E+01  0.682570271E+01  0.254682486E+01
   H -0.911730896E+01 -0.753490790E+00  0.238379712E+01
   H  0.911680022E+01 -0.883189139E+00  0.253260498E+01
  Xx  0.115219096E+01 -0.656503608E+00 -0.946262424E+03
    11
 # iter = 21000  time[fs]=21.00000
   N -0.123246361E+01 -0.228440466E+01  0.250589760E+01
   N  0.117458066E+01 -0.243447260E+01  0.249541208E+01
   C -0.111144912E+01  0.199351582E+01  0.250598056E+01
   C  0.110938020E+01  0.202006860E+01  0.249756295E+01
   C -0.226654280E+01  0.101192158E+00  0.250626301E+01
   C  0.231037864E+01  0.217993410E+00  0.249812867E+01
   H -0.421684888E+01  0.679648092E+01  0.246268537E+01
   H  0.422925905E+01  0.690866915E+01  0.254757013E+01
   H -0.923149835E+01 -0.768267870E+00  0.238193698E+01
   H  0.923016183E+01 -0.899806184E+00  0.253296267E+01
  Xx  0.115411074E+01 -0.657417368E+00 -0.957904139E+03
    11
 # iter = 21250  time[fs]=21.25000
   N -0.123981093E+01 -0.230026331E+01  0.250581133E+01
   N  0.118106914E+01 -0.245214557E+01  0.249538921E+01
   C -0.111700383E+01  0.200298695E+01  0.250603577E+01
   C  0.111528276E+01  0.202965550E+01  0.249749754E+01
   C -0.227968389E+01  0.102483456E+00  0.250632912E+01
   C  0.232364662E+01  0.221411743E+00  0.249822081E+01
   H -0.426871749E+01  0.687843958E+01  0.246197742E+01
   H  0.428125140E+01  0.699191423E+01  0.254831520E+01
   H -0.934602501E+01 -0.783135238E+00  0.238007182E+01
   H  0.934385476E+01 -0.916513615E+00  0.253332313E+01
  Xx  0.115603051E+01 -0.658331127E+00 -0.969545854E+03
    11
 # iter = 21500  time[fs]=21.50000
   N -0.124711911E+01 -0.231606578E+01  0.250570105E+01
   N  0.118754043E+01 -0.246987437E+01  0.249537558E+01
   C -0.112251909E+01  0.201240773E+01  0.250611011E+01
   C  0.112112312E+01  0.203916335E+01  0.249740848E+01
   C -0.229278054E+01  0.103813114E+00  0.250640209E+01
   C  0.233690873E+01  0.224934646E+00  0.249831905E+01
   H -0.432076209E+01  0.696069748E+01  0.246128224E+01
   H  0.433342108E+01  0.707545628E+01  0.254905465E+01
   H -0.946088403E+01 -0.798091296E+00  0.237820116E+01
   H  0.945787247E+01 -0.933313516E+00  0.253368694E+01
  Xx  0.115795029E+01 -0.659244887E+00 -0.981187570E+03
    11
 # iter = 21750  time[fs]=21.75000
   N -0.125438086E+01 -0.233178949E+01  0.250557531E+01
   N  0.119401413E+01 -0.248765082E+01  0.249537544E+01
   C -0.112799812E+01  0.202185294E+01  0.250619415E+01
   C  0.112692905E+01  0.204858159E+01  0.249731413E+01
   C -0.230584249E+01  0.105121637E+00  0.250646586E+01
   C  0.235011386E+01  0.228498213E+00  0.249842334E+01
   H -0.437296793E+01  0.704322793E+01  0.246059027E+01
   H  0.438577559E+01  0.715928106E+01  0.254979160E+01
   H -0.957607131E+01 -0.813135688E+00  0.237632520E+01
   H  0.957220819E+01 -0.950208400E+00  0.253405434E+01
  Xx  0.115987007E+01 -0.660158646E+00 -0.992829285E+03
    11
 # iter = 22000  time[fs]=22.00000
   N -0.126160451E+01 -0.234744255E+01  0.250543702E+01
   N  0.120047445E+01 -0.250547483E+01  0.249539664E+01
   C -0.113340955E+01  0.203125302E+01  0.250629195E+01
   C  0.113270953E+01  0.205790188E+01  0.249721598E+01
   C -0.231886940E+01  0.106449227E+00  0.250653441E+01
   C  0.236328904E+01  0.232165626E+00  0.249850693E+01
   H -0.442536410E+01  0.712605446E+01  0.245988582E+01
   H  0.443831267E+01  0.724340466E+01  0.255053731E+01
   H -0.969157903E+01 -0.828270557E+00  0.237444470E+01
   H  0.968685408E+01 -0.967197123E+00  0.253442357E+01
  Xx  0.116178985E+01 -0.661072406E+00 -0.100447100E+04
    11
 # iter = 22250  time[fs]=22.25000
   N -0.126877593E+01 -0.236304991E+01  0.250528949E+01
   N  0.120692842E+01 -0.252330356E+01  0.249543476E+01
   C -0.113882416E+01  0.204064575E+01  0.250642447E+01
   C  0.113849636E+01  0.206712783E+01  0.249714058E+01
   C -0.233186236E+01  0.107778932E+00  0.250656489E+01
   C  0.237642450E+01  0.235883427E+00  0.249858132E+01
   H -0.447792891E+01  0.720914690E+01  0.245918634E+01
   H  0.449101408E+01  0.732779844E+01  0.255128507E+01
   H -0.980739735E+01 -0.843494663E+00  0.237255938E+01
   H  0.980180681E+01 -0.984282358E+00  0.253479417E+01
  Xx  0.116370963E+01 -0.661986166E+00 -0.101611272E+04
    11
 # iter = 22500  time[fs]=22.50000
   N -0.127587516E+01 -0.237862780E+01  0.250514157E+01
   N  0.121338288E+01 -0.254110114E+01  0.249548440E+01
   C -0.114423252E+01  0.204998350E+01  0.250655160E+01
   C  0.114428383E+01  0.207628551E+01  0.249704074E+01
   C -0.234481696E+01  0.109137522E+00  0.250660769E+01
   C  0.238951863E+01  0.239670894E+00  0.249864498E+01
   H -0.453066503E+01  0.729250733E+01  0.245849817E+01
   H  0.454389109E+01  0.741247221E+01  0.255203429E+01
   H -0.992351951E+01 -0.858803346E+00  0.237066962E+01
   H  0.991706561E+01 -0.100146049E+01  0.253516610E+01
  Xx  0.116562941E+01 -0.662899925E+00 -0.102775443E+04
    11
 # iter = 22750  time[fs]=22.75000
   N -0.128291873E+01 -0.239420549E+01  0.250498134E+01
   N  0.121982555E+01 -0.255884262E+01  0.249554487E+01
   C -0.114957738E+01  0.205924292E+01  0.250666464E+01
   C  0.115004136E+01  0.208537965E+01  0.249695674E+01
   C -0.235774878E+01  0.110531665E+00  0.250663189E+01
   C  0.240258064E+01  0.243527695E+00  0.249872907E+01
   H -0.458357158E+01  0.737613438E+01  0.245780453E+01
   H  0.459693348E+01  0.749742015E+01  0.255279365E+01
   H -0.100399392E+02 -0.874193558E+00  0.236877515E+01
   H  0.100326246E+02 -0.101872610E+01  0.253553982E+01
  Xx  0.116754918E+01 -0.663813685E+00 -0.103939615E+04
    11
 # iter = 23000  time[fs]=23.00000
   N -0.128989950E+01 -0.240982158E+01  0.250481303E+01
   N  0.122626716E+01 -0.257651802E+01  0.249561342E+01
   C -0.115492787E+01  0.206846096E+01  0.250675511E+01
   C  0.115580064E+01  0.209439648E+01  0.249686102E+01
   C -0.237065308E+01  0.111971527E+00  0.250667894E+01
   C  0.241561174E+01  0.247453151E+00  0.249881125E+01
   H -0.463663786E+01  0.746001626E+01  0.245710609E+01
   H  0.465014061E+01  0.758263320E+01  0.255354971E+01
   H -0.101566520E+02 -0.889665560E+00  0.236687606E+01
   H  0.101484767E+02 -0.103607917E+01  0.253591456E+01
  Xx  0.116946896E+01 -0.664727444E+00 -0.105103786E+04
    11
 # iter = 23250  time[fs]=23.25000
   N -0.129679656E+01 -0.242548921E+01  0.250465634E+01
   N  0.123270066E+01 -0.259414611E+01  0.249567987E+01
   C -0.116024886E+01  0.207760644E+01  0.250684335E+01
   C  0.116158659E+01  0.210338440E+01  0.249678843E+01
   C -0.238354309E+01  0.113410120E+00  0.250673744E+01
   C  0.242861482E+01  0.251419118E+00  0.249887342E+01
   H -0.468987279E+01  0.754415982E+01  0.245641488E+01
   H  0.470351977E+01  0.766810547E+01  0.255430525E+01
   H -0.102736541E+02 -0.905223166E+00  0.236497285E+01
   H  0.102646147E+02 -0.105352201E+01  0.253628988E+01
  Xx  0.117138874E+01 -0.665641204E+00 -0.106267958E+04
    11
 # iter = 23500  time[fs]=23.50000
   N -0.130360654E+01 -0.244121168E+01  0.250450815E+01
   N  0.123910078E+01 -0.261172985E+01  0.249573663E+01
   C -0.116555413E+01  0.208673254E+01  0.250694145E+01
   C  0.116737224E+01  0.211228350E+01  0.249670878E+01
   C -0.239640319E+01  0.114861668E+00  0.250678642E+01
   C  0.244154932E+01  0.255422507E+00  0.249894007E+01
   H -0.474328750E+01  0.762856821E+01  0.245571952E+01
   H  0.475707534E+01  0.775385789E+01  0.255506949E+01
   H -0.103909363E+02 -0.920865125E+00  0.236306565E+01
   H  0.103810384E+02 -0.107105464E+01  0.253666549E+01
  Xx  0.117330852E+01 -0.666554963E+00 -0.107432129E+04
    11
 # iter = 23750  time[fs]=23.75000
   N -0.131034802E+01 -0.245697513E+01  0.250436260E+01
   N  0.124545961E+01 -0.262929226E+01  0.249578775E+01
   C -0.117085130E+01  0.209581343E+01  0.250702450E+01
   C  0.117312025E+01  0.212115263E+01  0.249662444E+01
   C -0.240921251E+01  0.116319316E+00  0.250681526E+01
   C  0.245449116E+01  0.259503607E+00  0.249903289E+01
   H -0.479686486E+01  0.771321909E+01  0.245501442E+01
   H  0.481079649E+01  0.783987171E+01  0.255583293E+01
   H -0.105084944E+02 -0.936589498E+00  0.236115389E+01
   H  0.104977454E+02 -0.108867330E+01  0.253704167E+01
  Xx  0.117522830E+01 -0.667468723E+00 -0.108596301E+04
    11
 # iter = 24000  time[fs]=24.00000
   N -0.131700360E+01 -0.247277143E+01  0.250421723E+01
   N  0.125177405E+01 -0.264688823E+01  0.249583181E+01
   C -0.117613864E+01  0.210488241E+01  0.250712209E+01
   C  0.117888543E+01  0.212990849E+01  0.249655903E+01
   C -0.242200216E+01  0.117790670E+00  0.250684365E+01
   C  0.246738355E+01  0.263666684E+00  0.249909964E+01
   H -0.485060664E+01  0.779811964E+01  0.245431001E+01
   H  0.486469096E+01  0.792614486E+01  0.255659524E+01
   H -0.106263279E+02 -0.952395975E+00  0.235923754E+01
   H  0.106147275E+02 -0.110637779E+01  0.253741894E+01
  Xx  0.117714807E+01 -0.668382482E+00 -0.109760472E+04
    11
 # iter = 24250  time[fs]=24.25000
   N -0.132356644E+01 -0.248858876E+01  0.250406184E+01
   N  0.125802476E+01 -0.266457503E+01  0.249588046E+01
   C -0.118139568E+01  0.211391201E+01  0.250723446E+01
   C  0.118465755E+01  0.213857594E+01  0.249647523E+01
   C -0.243474700E+01  0.119284243E+00  0.250686321E+01
   C  0.248023921E+01  0.267944685E+00  0.249918184E+01
   H -0.490451932E+01  0.788328215E+01  0.245360454E+01
   H  0.491875854E+01  0.801267372E+01  0.255736444E+01
   H -0.107444327E+02 -0.968285482E+00  0.235731640E+01
   H  0.107319804E+02 -0.112416764E+01  0.253779822E+01
  Xx  0.117906785E+01 -0.669296242E+00 -0.110924644E+04
    11
 # iter = 24500  time[fs]=24.50000
   N -0.133005268E+01 -0.250440560E+01  0.250389018E+01
   N  0.126421921E+01 -0.268236804E+01  0.249594042E+01
   C -0.118665499E+01  0.212291994E+01  0.250733335E+01
   C  0.119047323E+01  0.214713368E+01  0.249640198E+01
   C -0.244751692E+01  0.120764089E+00  0.250688703E+01
   C  0.249307120E+01  0.272319058E+00  0.249926321E+01
   H -0.495860757E+01  0.796870365E+01  0.245289354E+01
   H  0.497299931E+01  0.809945946E+01  0.255814165E+01
   H -0.108628027E+02 -0.984258405E+00  0.235539057E+01
   H  0.108494975E+02 -0.114204231E+01  0.253817922E+01
  Xx  0.118098763E+01 -0.670210001E+00 -0.112088815E+04
    11
 # iter = 24750  time[fs]=24.75000
   N -0.133646138E+01 -0.252021116E+01  0.250371320E+01
   N  0.127035304E+01 -0.270026163E+01  0.249601261E+01
   C -0.119188628E+01  0.213193982E+01  0.250743911E+01
   C  0.119632243E+01  0.215562108E+01  0.249631962E+01
   C -0.246022791E+01  0.122253639E+00  0.250692226E+01
   C  0.250581484E+01  0.276790126E+00  0.249934661E+01
   H -0.501286220E+01  0.805437939E+01  0.245217766E+01
   H  0.502741192E+01  0.818649844E+01  0.255892302E+01
   H -0.109814434E+02 -0.100031408E+01  0.235346011E+01
   H  0.109672716E+02 -0.115999875E+01  0.253856126E+01
  Xx  0.118290741E+01 -0.671123761E+00 -0.113252987E+04
    11
 # iter = 25000  time[fs]=25.00000
   N -0.134279793E+01 -0.253598366E+01  0.250352290E+01
   N  0.127642226E+01 -0.271825636E+01  0.249609113E+01
   C -0.119708222E+01  0.214090805E+01  0.250751313E+01
   C  0.120219042E+01  0.216400997E+01  0.249626367E+01
   C -0.247291817E+01  0.123770229E+00  0.250697226E+01
   C  0.251853118E+01  0.281338034E+00  0.249941295E+01
   H -0.506728920E+01  0.814031787E+01  0.245145889E+01
   H  0.508199488E+01  0.827377991E+01  0.255970661E+01
   H -0.111003488E+02 -0.101645251E+01  0.235152524E+01
   H  0.110852959E+02 -0.117803623E+01  0.253894360E+01
  Xx  0.118482719E+01 -0.672037521E+00 -0.114417159E+04
    11
 # iter = 25250  time[fs]=25.25000
   N -0.134906837E+01 -0.255172713E+01  0.250331357E+01
   N  0.128243582E+01 -0.273632602E+01  0.249617821E+01
   C -0.120228563E+01  0.214987306E+01  0.250757566E+01
   C  0.120805905E+01  0.217233472E+01  0.249620327E+01
   C -0.248556306E+01  0.125312226E+00  0.250700416E+01
   C  0.253120692E+01  0.285985798E+00  0.249949951E+01
   H -0.512188549E+01  0.822651551E+01  0.245073894E+01
   H  0.513674588E+01  0.836131584E+01  0.256049296E+01
   H -0.112195122E+02 -0.103267190E+01  0.234958643E+01
   H  0.112035731E+02 -0.119615480E+01  0.253932628E+01
  Xx  0.118674697E+01 -0.672951280E+00 -0.115581330E+04
    11
 # iter = 25500  time[fs]=25.50000
   N -0.135526557E+01 -0.256743394E+01  0.250309407E+01
   N  0.128837743E+01 -0.275442916E+01  0.249627811E+01
   C -0.120748590E+01  0.215874390E+01  0.250764439E+01
   C  0.121392080E+01  0.218059339E+01  0.249613861E+01
   C -0.249821189E+01  0.126908516E+00  0.250705703E+01
   C  0.254384596E+01  0.290699434E+00  0.249958730E+01
   H -0.517664966E+01  0.831296360E+01  0.245001754E+01
   H  0.519166463E+01  0.844909908E+01  0.256128137E+01
   H -0.113389266E+02 -0.104897238E+01  0.234764488E+01
   H  0.113221000E+02 -0.121435594E+01  0.253970921E+01
  Xx  0.118866674E+01 -0.673865040E+00 -0.116745502E+04
    11
 # iter = 25750  time[fs]=25.75000
   N -0.136139922E+01 -0.258311846E+01  0.250287773E+01
   N  0.129425158E+01 -0.277252181E+01  0.249639516E+01
   C -0.121265584E+01  0.216760241E+01  0.250771198E+01
   C  0.121976535E+01  0.218878412E+01  0.249608949E+01
   C -0.251080045E+01  0.128572006E+00  0.250710247E+01
   C  0.255647642E+01  0.295469826E+00  0.249965642E+01
   H -0.523158719E+01  0.839967195E+01  0.244929577E+01
   H  0.524675459E+01  0.853712900E+01  0.256207104E+01
   H -0.114585931E+02 -0.106535335E+01  0.234570032E+01
   H  0.114408694E+02 -0.123263853E+01  0.254009230E+01
  Xx  0.119058652E+01 -0.674778799E+00 -0.117909673E+04
    11
 # iter = 26000  time[fs]=26.00000
   N -0.136749019E+01 -0.259877443E+01  0.250265825E+01
   N  0.130004396E+01 -0.279059186E+01  0.249651202E+01
   C -0.121783216E+01  0.217640243E+01  0.250778969E+01
   C  0.122563216E+01  0.219694193E+01  0.249603653E+01
   C -0.252337423E+01  0.130255226E+00  0.250713938E+01
   C  0.256908185E+01  0.300286887E+00  0.249971340E+01
   H -0.528669785E+01  0.848663288E+01  0.244857605E+01
   H  0.530201339E+01  0.862540514E+01  0.256286209E+01
   H -0.115785003E+02 -0.108181441E+01  0.234375242E+01
   H  0.115598810E+02 -0.125100262E+01  0.254047560E+01
  Xx  0.119250630E+01 -0.675692559E+00 -0.119073845E+04
    11
 # iter = 26250  time[fs]=26.25000
   N -0.137354012E+01 -0.261441003E+01  0.250244020E+01
   N  0.130574268E+01 -0.280861663E+01  0.249662321E+01
   C -0.122302725E+01  0.218516466E+01  0.250788009E+01
   C  0.123145348E+01  0.220507774E+01  0.249597713E+01
   C -0.253589095E+01  0.131990682E+00  0.250718321E+01
   C  0.258164107E+01  0.305138253E+00  0.249978389E+01
   H -0.534197468E+01  0.857383032E+01  0.244785678E+01
   H  0.535743810E+01  0.871393251E+01  0.256365558E+01
   H -0.116986429E+02 -0.109835171E+01  0.234180142E+01
   H  0.116791343E+02 -0.126944776E+01  0.254085956E+01
  Xx  0.119442608E+01 -0.676606318E+00 -0.120238016E+04
    11
 # iter = 26500  time[fs]=26.50000
   N -0.137953774E+01 -0.263005557E+01  0.250222512E+01
   N  0.131136478E+01 -0.282658109E+01  0.249674060E+01
   C -0.122822008E+01  0.219389063E+01  0.250796999E+01
   C  0.123730957E+01  0.221316482E+01  0.249594475E+01
   C -0.254836906E+01  0.133762569E+00  0.250722756E+01
   C  0.259415740E+01  0.310037239E+00  0.249982573E+01
   H -0.539741970E+01  0.866127062E+01  0.244713756E+01
   H  0.541302740E+01  0.880270136E+01  0.256445243E+01
   H -0.118190196E+02 -0.111496461E+01  0.233984732E+01
   H  0.117986195E+02 -0.128797170E+01  0.254124424E+01
  Xx  0.119634586E+01 -0.677520078E+00 -0.121402188E+04
    11
 # iter = 26750  time[fs]=26.75000
   N -0.138549996E+01 -0.264574229E+01  0.250201694E+01
   N  0.131688774E+01 -0.284450466E+01  0.249686415E+01
   C -0.123339833E+01  0.220258217E+01  0.250803097E+01
   C  0.124316279E+01  0.222121709E+01  0.249589949E+01
   C -0.256081051E+01  0.135581552E+00  0.250726884E+01
   C  0.260665477E+01  0.314972341E+00  0.249989812E+01
   H -0.545302916E+01  0.874894633E+01  0.244641874E+01
   H  0.546877854E+01  0.889170713E+01  0.256525133E+01
   H -0.119396267E+02 -0.113165175E+01  0.233789022E+01
   H  0.119183316E+02 -0.130657192E+01  0.254162976E+01
  Xx  0.119826563E+01 -0.678433837E+00 -0.122566359E+04
    11
 # iter = 27000  time[fs]=27.00000
   N -0.139142963E+01 -0.266149422E+01  0.250181745E+01
   N  0.132232094E+01 -0.286239714E+01  0.249699478E+01
   C -0.123858756E+01  0.221124776E+01  0.250808749E+01
   C  0.124900186E+01  0.222920706E+01  0.249587359E+01
   C -0.257322409E+01  0.137468072E+00  0.250731412E+01
   C  0.261908979E+01  0.319961711E+00  0.249995237E+01
   H -0.550879724E+01  0.883684782E+01  0.244569939E+01
   H  0.552468688E+01  0.898094802E+01  0.256605128E+01
   H -0.120604575E+02 -0.114841021E+01  0.233593003E+01
   H  0.120382703E+02 -0.132524674E+01  0.254201565E+01
  Xx  0.120018541E+01 -0.679347597E+00 -0.123730531E+04
    11
 # iter = 27250  time[fs]=27.25000
   N -0.139734051E+01 -0.267730776E+01  0.250162324E+01
   N  0.132766882E+01 -0.288026565E+01  0.249712642E+01
   C -0.124375585E+01  0.221987068E+01  0.250814977E+01
   C  0.125480494E+01  0.223714204E+01  0.249581061E+01
   C -0.258561414E+01  0.139385665E+00  0.250735948E+01
   C  0.263154024E+01  0.325018320E+00  0.250001878E+01
   H -0.556472391E+01  0.892497628E+01  0.244497972E+01
   H  0.558075230E+01  0.907041861E+01  0.256685184E+01
   H -0.121815069E+02 -0.116523954E+01  0.233396652E+01
   H  0.121584283E+02 -0.134399485E+01  0.254240171E+01
  Xx  0.120210519E+01 -0.680261356E+00 -0.124894702E+04
    11
 # iter = 27500  time[fs]=27.50000
   N -0.140322009E+01 -0.269320109E+01  0.250143043E+01
   N  0.133293318E+01 -0.289814100E+01  0.249725951E+01
   C -0.124893640E+01  0.222845623E+01  0.250820426E+01
   C  0.126059142E+01  0.224501445E+01  0.249579602E+01
   C -0.259796873E+01  0.141351548E+00  0.250739027E+01
   C  0.264394302E+01  0.330115677E+00  0.250005956E+01
   H -0.562080525E+01  0.901332779E+01  0.244425942E+01
   H  0.563697342E+01  0.916011696E+01  0.256765377E+01
   H -0.123027739E+02 -0.118213913E+01  0.233199967E+01
   H  0.122788001E+02 -0.136281612E+01  0.254278777E+01
  Xx  0.120402497E+01 -0.681175116E+00 -0.126058874E+04
    11
 # iter = 27750  time[fs]=27.75000
   N -0.140908225E+01 -0.270918882E+01  0.250124187E+01
   N  0.133812128E+01 -0.291605220E+01  0.249739647E+01
   C -0.125409240E+01  0.223701602E+01  0.250827501E+01
   C  0.126637274E+01  0.225280638E+01  0.249575388E+01
   C -0.261028846E+01  0.143356950E+00  0.250741961E+01
   C  0.265634505E+01  0.335283389E+00  0.250010667E+01
   H -0.567703981E+01  0.910190499E+01  0.244353679E+01
   H  0.569334917E+01  0.925003508E+01  0.256845665E+01
   H -0.124242579E+02 -0.119910989E+01  0.233002939E+01
   H  0.123993790E+02 -0.138170846E+01  0.254317392E+01
  Xx  0.120594475E+01 -0.682088876E+00 -0.127223046E+04
    11
 # iter = 28000  time[fs]=28.00000
   N -0.141495879E+01 -0.272524342E+01  0.250105398E+01
   N  0.134322736E+01 -0.293402968E+01  0.249754202E+01
   C -0.125924493E+01  0.224555090E+01  0.250835942E+01
   C  0.127220087E+01  0.226054435E+01  0.249570636E+01
   C -0.262257697E+01  0.145405009E+00  0.250743742E+01
   C  0.266868591E+01  0.340523046E+00  0.250015427E+01
   H -0.573342549E+01  0.919070478E+01  0.244281096E+01
   H  0.574987505E+01  0.934016869E+01  0.256926056E+01
   H -0.125459525E+02 -0.121615067E+01  0.232805557E+01
   H  0.125201645E+02 -0.140067046E+01  0.254356014E+01
  Xx  0.120786453E+01 -0.683002635E+00 -0.128387217E+04
    11
 # iter = 28250  time[fs]=28.25000
   N -0.142082603E+01 -0.274133594E+01  0.250086308E+01
   N  0.134826760E+01 -0.295209102E+01  0.249768736E+01
   C -0.126442701E+01  0.225403309E+01  0.250843792E+01
   C  0.127804494E+01  0.226822846E+01  0.249565526E+01
   C -0.263482894E+01  0.147492895E+00  0.250743172E+01
   C  0.268098544E+01  0.345800492E+00  0.250021572E+01
   H -0.578996015E+01  0.927971979E+01  0.244208179E+01
   H  0.580655017E+01  0.943051776E+01  0.257006582E+01
   H -0.126678520E+02 -0.123325879E+01  0.232607822E+01
   H  0.126411524E+02 -0.141970211E+01  0.254394649E+01
  Xx  0.120978430E+01 -0.683916395E+00 -0.129551389E+04
    11
 # iter = 28500  time[fs]=28.50000
   N -0.142670677E+01 -0.275744008E+01  0.250067553E+01
   N  0.135324627E+01 -0.297022987E+01  0.249782346E+01
   C -0.126963545E+01  0.226249008E+01  0.250852069E+01
   C  0.128390758E+01  0.227586275E+01  0.249559798E+01
   C -0.264705205E+01  0.149636819E+00  0.250744430E+01
   C  0.269323067E+01  0.351169238E+00  0.250029193E+01
   H -0.584663815E+01  0.936894572E+01  0.244135021E+01
   H  0.586336746E+01  0.952107396E+01  0.257087257E+01
   H -0.127899557E+02 -0.125043219E+01  0.232409786E+01
   H  0.127623395E+02 -0.143880076E+01  0.254433332E+01
  Xx  0.121170408E+01 -0.684830154E+00 -0.130715560E+04
    11
 # iter = 28750  time[fs]=28.75000
   N -0.143262290E+01 -0.277353520E+01  0.250049609E+01
   N  0.135816943E+01 -0.298843491E+01  0.249795448E+01
   C -0.127481016E+01  0.227090325E+01  0.250860397E+01
   C  0.128984427E+01  0.228342698E+01  0.249551412E+01
   C -0.265924269E+01  0.151814751E+00  0.250745969E+01
   C  0.270543605E+01  0.356601069E+00  0.250037304E+01
   H -0.590345995E+01  0.945838627E+01  0.244061614E+01
   H  0.592032689E+01  0.961183118E+01  0.257168038E+01
   H -0.129122599E+02 -0.126767173E+01  0.232211420E+01
   H  0.128837195E+02 -0.145796463E+01  0.254472046E+01
  Xx  0.121362386E+01 -0.685743914E+00 -0.131879732E+04
    11
 # iter = 29000  time[fs]=29.00000
   N -0.143855887E+01 -0.278959967E+01  0.250031786E+01
   N  0.136303522E+01 -0.300668969E+01  0.249809248E+01
   C -0.127996788E+01  0.227927197E+01  0.250867505E+01
   C  0.129575369E+01  0.229090855E+01  0.249544442E+01
   C -0.267141314E+01  0.154065124E+00  0.250747259E+01
   C  0.271760036E+01  0.362108759E+00  0.250045391E+01
   H -0.596042175E+01  0.954803034E+01  0.243988021E+01
   H  0.597742442E+01  0.970279025E+01  0.257249000E+01
   H -0.130347578E+02 -0.128497502E+01  0.232012730E+01
   H  0.130052931E+02 -0.147719327E+01  0.254510840E+01
  Xx  0.121554364E+01 -0.686657673E+00 -0.133043903E+04
    11
 # iter = 29250  time[fs]=29.25000
   N -0.144452564E+01 -0.280561801E+01  0.250014547E+01
   N  0.136784835E+01 -0.302495685E+01  0.249823500E+01
   C -0.128509077E+01  0.228758412E+01  0.250873333E+01
   C  0.130166916E+01  0.229835092E+01  0.249540121E+01
   C -0.268358753E+01  0.156365734E+00  0.250750055E+01
   C  0.272970739E+01  0.367736391E+00  0.250051121E+01
   H -0.601752167E+01  0.963787425E+01  0.243914298E+01
   H  0.603465607E+01  0.979394736E+01  0.257330203E+01
   H -0.131574433E+02 -0.130234048E+01  0.231813776E+01
   H  0.131270589E+02 -0.149648570E+01  0.254549714E+01
  Xx  0.121746342E+01 -0.687571433E+00 -0.134208075E+04
    11
 # iter = 29500  time[fs]=29.50000
   N -0.145050059E+01 -0.282158470E+01  0.249997331E+01
   N  0.137262463E+01 -0.304321677E+01  0.249837137E+01
   C -0.129017851E+01  0.229586232E+01  0.250879733E+01
   C  0.130761265E+01  0.230569980E+01  0.249535139E+01
   C -0.269573569E+01  0.158696678E+00  0.250753039E+01
   C  0.274176679E+01  0.373422925E+00  0.250057457E+01
   H -0.607476006E+01  0.972791724E+01  0.243840474E+01
   H  0.609202489E+01  0.988530164E+01  0.257411661E+01
   H -0.132803153E+02 -0.131976836E+01  0.231614554E+01
   H  0.132490083E+02 -0.151584227E+01  0.254588671E+01
  Xx  0.121938320E+01 -0.688485192E+00 -0.135372246E+04
    11
 # iter = 29750  time[fs]=29.75000
   N -0.145647897E+01 -0.283749987E+01  0.249979997E+01
   N  0.137735703E+01 -0.306144945E+01  0.249850146E+01
   C -0.129521854E+01  0.230410536E+01  0.250885216E+01
   C  0.131353171E+01  0.231301084E+01  0.249531851E+01
   C -0.270786776E+01  0.161087155E+00  0.250752985E+01
   C  0.275375303E+01  0.379217104E+00  0.250064433E+01
   H -0.613213236E+01  0.981815601E+01  0.243766510E+01
   H  0.614952639E+01  0.997684902E+01  0.257493341E+01
   H -0.134033736E+02 -0.133725781E+01  0.231415053E+01
   H  0.133711392E+02 -0.153526169E+01  0.254627692E+01
  Xx  0.122130297E+01 -0.689398952E+00 -0.136536418E+04
    11
 # iter = 30000  time[fs]=30.00000
   N -0.146245941E+01 -0.285337122E+01  0.249962984E+01
   N  0.138205344E+01 -0.307963475E+01  0.249863767E+01
   C -0.130021496E+01  0.231234013E+01  0.250890023E+01
   C  0.131949010E+01  0.232025654E+01  0.249530437E+01
   C -0.271998128E+01  0.163496757E+00  0.250754370E+01
   C  0.276569528E+01  0.385060569E+00  0.250070456E+01
   H -0.618963923E+01  0.990858981E+01  0.243692369E+01
   H  0.620716193E+01  0.100685888E+02  0.257575234E+01
   H -0.135266138E+02 -0.135480937E+01  0.231215286E+01
   H  0.134934483E+02 -0.155474356E+01  0.254666757E+01
  Xx  0.122322275E+01 -0.690312711E+00 -0.137700589E+04
    11
 # iter = 30250  time[fs]=30.25000
   N -0.146842284E+01 -0.286922076E+01  0.249946051E+01
   N  0.138671938E+01 -0.309779285E+01  0.249878230E+01
   C -0.130521293E+01  0.232052533E+01  0.250896686E+01
   C  0.132545827E+01  0.232744763E+01  0.249526113E+01
   C -0.273205829E+01  0.165938858E+00  0.250755573E+01
   C  0.277755805E+01  0.391021676E+00  0.250076499E+01
   H -0.624727857E+01  0.999921308E+01  0.243618025E+01
   H  0.626492875E+01  0.101605195E+02  0.257657298E+01
   H -0.136500303E+02 -0.137242167E+01  0.231015247E+01
   H  0.136159346E+02 -0.157428741E+01  0.254705822E+01
  Xx  0.122514253E+01 -0.691226471E+00 -0.138864761E+04
    11
 # iter = 30500  time[fs]=30.50000
   N -0.147437405E+01 -0.288507279E+01  0.249928821E+01
   N  0.139136314E+01 -0.311594180E+01  0.249892592E+01
   C -0.131022926E+01  0.232867580E+01  0.250902961E+01
   C  0.133144946E+01  0.233457221E+01  0.249521682E+01
   C -0.274409821E+01  0.168409371E+00  0.250755652E+01
   C  0.278937520E+01  0.397033949E+00  0.250083274E+01
   H -0.630504900E+01  0.100900228E+02  0.243543487E+01
   H  0.632282548E+01  0.102526388E+02  0.257739541E+01
   H -0.137736201E+02 -0.139009327E+01  0.230814920E+01
   H  0.137385947E+02 -0.159389286E+01  0.254744887E+01
  Xx  0.122706231E+01 -0.692140231E+00 -0.140028933E+04
    11
 # iter = 30750  time[fs]=30.75000
   N -0.148030995E+01 -0.290095550E+01  0.249912222E+01
   N  0.139602321E+01 -0.313408438E+01  0.249906936E+01
   C -0.131524024E+01  0.233679378E+01  0.250909803E+01
   C  0.133746210E+01  0.234164979E+01  0.249516977E+01
   C -0.275611075E+01  0.170939058E+00  0.250757755E+01
   C  0.280114253E+01  0.403171339E+00  0.250088730E+01
   H -0.636294471E+01  0.101810144E+02  0.243468814E+01
   H  0.638084614E+01  0.103449385E+02  0.257821956E+01
   H -0.138973823E+02 -0.140782223E+01  0.230614328E+01
   H  0.138614248E+02 -0.161355736E+01  0.254783951E+01
  Xx  0.122898209E+01 -0.693053990E+00 -0.141193104E+04
    11
 # iter = 31000  time[fs]=31.00000
   N -0.148623396E+01 -0.291690084E+01  0.249895754E+01
   N  0.140069083E+01 -0.315225532E+01  0.249921020E+01
   C -0.132022336E+01  0.234488468E+01  0.250917245E+01
   C  0.134348789E+01  0.234864334E+01  0.249510822E+01
   C -0.276806005E+01  0.173503955E+00  0.250760215E+01
   C  0.281285958E+01  0.409355383E+00  0.250094872E+01
   H -0.642096551E+01  0.102721856E+02  0.243393996E+01
   H  0.643899120E+01  0.104374181E+02  0.257904522E+01
   H -0.140213128E+02 -0.142560812E+01  0.230413456E+01
   H  0.139844214E+02 -0.163328016E+01  0.254823028E+01
  Xx  0.123090186E+01 -0.693967750E+00 -0.142357276E+04
    11
 # iter = 31250  time[fs]=31.25000
   N -0.149215484E+01 -0.293291602E+01  0.249879166E+01
   N  0.140534617E+01 -0.317048677E+01  0.249935357E+01
   C -0.132522976E+01  0.235291350E+01  0.250924156E+01
   C  0.134951545E+01  0.235560025E+01  0.249503117E+01
   C -0.277999334E+01  0.176102620E+00  0.250760734E+01
   C  0.282453985E+01  0.415652924E+00  0.250102788E+01
   H -0.647910875E+01  0.103635299E+02  0.243319000E+01
   H  0.649725635E+01  0.105300752E+02  0.257987229E+01
   H -0.141454050E+02 -0.144344897E+01  0.230212298E+01
   H  0.141075854E+02 -0.165305984E+01  0.254862122E+01
  Xx  0.123282164E+01 -0.694881509E+00 -0.143521447E+04
    11
 # iter = 31500  time[fs]=31.50000
   N -0.149806073E+01 -0.294900985E+01  0.249862733E+01
   N  0.141001605E+01 -0.318878814E+01  0.249950195E+01
   C -0.133022348E+01  0.236091626E+01  0.250929479E+01
   C  0.135553305E+01  0.236251879E+01  0.249497996E+01
   C -0.279187892E+01  0.178766338E+00  0.250763192E+01
   C  0.283616291E+01  0.422011890E+00  0.250110175E+01
   H -0.653737005E+01  0.104550437E+02  0.243243834E+01
   H  0.655563781E+01  0.106229054E+02  0.258070085E+01
   H -0.142696571E+02 -0.146134302E+01  0.230010879E+01
   H  0.142309133E+02 -0.167289490E+01  0.254901253E+01
  Xx  0.123474142E+01 -0.695795269E+00 -0.144685619E+04
    11
 # iter = 31750  time[fs]=31.75000
   N -0.150394938E+01 -0.296517864E+01  0.249846563E+01
   N  0.141472103E+01 -0.320715239E+01  0.249965019E+01
   C -0.133520177E+01  0.236885585E+01  0.250934845E+01
   C  0.136159827E+01  0.236938159E+01  0.249492626E+01
   C -0.280372037E+01  0.181479438E+00  0.250765256E+01
   C  0.284773327E+01  0.428452841E+00  0.250117408E+01
   H -0.659574867E+01  0.105467287E+02  0.243168501E+01
   H  0.661413515E+01  0.107159013E+02  0.258153052E+01
   H -0.143940690E+02 -0.147928997E+01  0.229809199E+01
   H  0.143543980E+02 -0.169278386E+01  0.254940412E+01
  Xx  0.123666120E+01 -0.696709028E+00 -0.145849790E+04
    11
 # iter = 32000  time[fs]=32.00000
   N -0.150981691E+01 -0.298140837E+01  0.249830334E+01
   N  0.141947013E+01 -0.322557322E+01  0.249979704E+01
   C -0.134019588E+01  0.237673910E+01  0.250938692E+01
   C  0.136768265E+01  0.237623155E+01  0.249488853E+01
   C -0.281553374E+01  0.184246688E+00  0.250765839E+01
   C  0.285923659E+01  0.434955014E+00  0.250124210E+01
   H -0.665424265E+01  0.106385824E+02  0.243093013E+01
   H  0.667274608E+01  0.108090601E+02  0.258236160E+01
   H -0.145186380E+02 -0.149728914E+01  0.229607268E+01
   H  0.144780380E+02 -0.171272601E+01  0.254979591E+01
  Xx  0.123858098E+01 -0.697622788E+00 -0.147013962E+04
    11
 # iter = 32250  time[fs]=32.25000
   N -0.151564778E+01 -0.299768666E+01  0.249814538E+01
   N  0.142426184E+01 -0.324404430E+01  0.249994195E+01
   C -0.134514732E+01  0.238457580E+01  0.250941760E+01
   C  0.137380719E+01  0.238304197E+01  0.249488005E+01
   C -0.282730500E+01  0.187077134E+00  0.250769073E+01
   C  0.287068831E+01  0.441522525E+00  0.250128603E+01
   H -0.671285006E+01  0.107306031E+02  0.243017409E+01
   H  0.673146876E+01  0.109023787E+02  0.258319439E+01
   H -0.146433621E+02 -0.151534005E+01  0.229405113E+01
   H  0.146018303E+02 -0.173272039E+01  0.255018815E+01
  Xx  0.124050076E+01 -0.698536547E+00 -0.148178133E+04
    11
 # iter = 32500  time[fs]=32.50000
   N -0.152144758E+01 -0.301398550E+01  0.249799102E+01
   N  0.142907177E+01 -0.326253886E+01  0.250009009E+01
   C -0.135009784E+01  0.239236628E+01  0.250943275E+01
   C  0.137993924E+01  0.238984176E+01  0.249487950E+01
   C -0.283904212E+01  0.189971370E+00  0.250771932E+01
   C  0.288207512E+01  0.448139794E+00  0.250132001E+01
   H -0.677156918E+01  0.108227849E+02  0.242941710E+01
   H  0.679030135E+01  0.109958575E+02  0.258402892E+01
   H -0.147682369E+02 -0.153344170E+01  0.229202737E+01
   H  0.147257747E+02 -0.175276681E+01  0.255058117E+01
  Xx  0.124242053E+01 -0.699450307E+00 -0.149342305E+04
    11
 # iter = 32750  time[fs]=32.75000
   N -0.152721442E+01 -0.303026591E+01  0.249783353E+01
   N  0.143392174E+01 -0.328102992E+01  0.250024055E+01
   C -0.135504418E+01  0.240008997E+01  0.250944842E+01
   C  0.138608038E+01  0.239662173E+01  0.249486440E+01
   C -0.285076428E+01  0.192906760E+00  0.250774553E+01
   C  0.289342694E+01  0.454831110E+00  0.250137024E+01
   H -0.683039905E+01  0.109151264E+02  0.242865926E+01
   H  0.684924274E+01  0.110894951E+02  0.258486568E+01
   H -0.148932586E+02 -0.155159367E+01  0.229000138E+01
   H  0.148498689E+02 -0.177286472E+01  0.255097529E+01
  Xx  0.124434031E+01 -0.700364066E+00 -0.150506476E+04
    11
 # iter = 33000  time[fs]=33.00000
   N -0.153293261E+01 -0.304652009E+01  0.249767893E+01
   N  0.143883100E+01 -0.329949161E+01  0.250039445E+01
   C -0.135995452E+01  0.240776342E+01  0.250945604E+01
   C  0.139223001E+01  0.240335094E+01  0.249484437E+01
   C -0.286244192E+01  0.195916475E+00  0.250779987E+01
   C  0.290474547E+01  0.461575562E+00  0.250142375E+01
   H -0.688933708E+01  0.110076258E+02  0.242790082E+01
   H  0.690829173E+01  0.111832880E+02  0.258570465E+01
   H -0.150184269E+02 -0.156979519E+01  0.228797317E+01
   H  0.149741098E+02 -0.179301334E+01  0.255137052E+01
  Xx  0.124626009E+01 -0.701277826E+00 -0.151670648E+04
    11
 # iter = 33250  time[fs]=33.25000
   N -0.153859775E+01 -0.306273303E+01  0.249752788E+01
   N  0.144378407E+01 -0.331790859E+01  0.250054620E+01
   C -0.136486464E+01  0.241539788E+01  0.250947387E+01
   C  0.139837927E+01  0.241005485E+01  0.249480587E+01
   C -0.287410157E+01  0.198991768E+00  0.250782960E+01
   C  0.291603471E+01  0.468415263E+00  0.250148647E+01
   H -0.694838052E+01  0.111002772E+02  0.242714129E+01
   H  0.696744563E+01  0.112772346E+02  0.258654585E+01
   H -0.151437404E+02 -0.158804511E+01  0.228594274E+01
   H  0.150984940E+02 -0.181321211E+01  0.255176686E+01
  Xx  0.124817987E+01 -0.702191586E+00 -0.152834819E+04
    11
 # iter = 33500  time[fs]=33.50000
   N -0.154420231E+01 -0.307889270E+01  0.249737469E+01
   N  0.144877978E+01 -0.333628091E+01  0.250069980E+01
   C -0.136976798E+01  0.242297793E+01  0.250949855E+01
   C  0.140455867E+01  0.241671085E+01  0.249474370E+01
   C -0.288573445E+01  0.202135511E+00  0.250786384E+01
   C  0.292729333E+01  0.475327466E+00  0.250157873E+01
   H -0.700753043E+01  0.111930797E+02  0.242638050E+01
   H  0.702670438E+01  0.113713336E+02  0.258738898E+01
   H -0.152691957E+02 -0.160634315E+01  0.228391009E+01
   H  0.152230186E+02 -0.183346063E+01  0.255216402E+01
  Xx  0.125009965E+01 -0.703105345E+00 -0.153998991E+04
    11
 # iter = 33750  time[fs]=33.75000
   N -0.154974639E+01 -0.309501117E+01  0.249721922E+01
   N  0.145381163E+01 -0.335462969E+01  0.250085530E+01
   C -0.137466128E+01  0.243052034E+01  0.250954177E+01
   C  0.141074382E+01  0.242332774E+01  0.249468311E+01
   C -0.289735965E+01  0.205302534E+00  0.250790238E+01
   C  0.293851523E+01  0.482304418E+00  0.250165837E+01
   H -0.706678536E+01  0.112860321E+02  0.242561841E+01
   H  0.708606640E+01  0.114655829E+02  0.258823391E+01
   H -0.153947896E+02 -0.162468890E+01  0.228187522E+01
   H  0.153476809E+02 -0.185375814E+01  0.255256127E+01
  Xx  0.125201942E+01 -0.704019105E+00 -0.155163163E+04
    11
 # iter = 34000  time[fs]=34.00000
   N -0.155522429E+01 -0.311109986E+01  0.249706412E+01
   N  0.145886339E+01 -0.337296719E+01  0.250101378E+01
   C -0.137956172E+01  0.243805999E+01  0.250958895E+01
   C  0.141695804E+01  0.242991579E+01  0.249462907E+01
   C -0.290896289E+01  0.208547447E+00  0.250791649E+01
   C  0.294968690E+01  0.489355181E+00  0.250172406E+01
   H -0.712614199E+01  0.113791314E+02  0.242485495E+01
   H  0.714552917E+01  0.115599789E+02  0.258908035E+01
   H -0.155205211E+02 -0.164308128E+01  0.227983813E+01
   H  0.154724798E+02 -0.187410326E+01  0.255295852E+01
  Xx  0.125393920E+01 -0.704932864E+00 -0.156327334E+04
    11
 # iter = 34250  time[fs]=34.25000
   N -0.156062166E+01 -0.312717850E+01  0.249690252E+01
   N  0.146393465E+01 -0.339130449E+01  0.250117068E+01
   C -0.138442444E+01  0.244555693E+01  0.250966715E+01
   C  0.142319919E+01  0.243645691E+01  0.249457643E+01
   C -0.292055007E+01  0.211814719E+00  0.250792911E+01
   C  0.296082643E+01  0.496483372E+00  0.250178952E+01
   H -0.718560057E+01  0.114723795E+02  0.242409036E+01
   H  0.720509302E+01  0.116545181E+02  0.258992823E+01
   H -0.156463893E+02 -0.166152045E+01  0.227779882E+01
   H  0.155974122E+02 -0.189449494E+01  0.255335578E+01
  Xx  0.125585898E+01 -0.705846624E+00 -0.157491506E+04
    11
 # iter = 34500  time[fs]=34.50000
   N -0.156594681E+01 -0.314327391E+01  0.249674382E+01
   N  0.146902349E+01 -0.340968361E+01  0.250132362E+01
   C -0.138930253E+01  0.245305274E+01  0.250973200E+01
   C  0.142950184E+01  0.244295706E+01  0.249454205E+01
   C -0.293212111E+01  0.215113338E+00  0.250794566E+01
   C  0.297190306E+01  0.503672233E+00  0.250183463E+01
   H -0.724515923E+01  0.115657737E+02  0.242332465E+01
   H  0.726475547E+01  0.117491976E+02  0.259077743E+01
   H -0.157723911E+02 -0.168000521E+01  0.227575729E+01
   H  0.157224749E+02 -0.191493239E+01  0.255375305E+01
  Xx  0.125777876E+01 -0.706760383E+00 -0.158655677E+04
    11
 # iter = 34750  time[fs]=34.75000
   N -0.157119609E+01 -0.315940909E+01  0.249658762E+01
   N  0.147412276E+01 -0.342813656E+01  0.250147613E+01
   C -0.139420250E+01  0.246051640E+01  0.250979817E+01
   C  0.143581683E+01  0.244941067E+01  0.249452426E+01
   C -0.294368328E+01  0.218469504E+00  0.250794125E+01
   C  0.298294952E+01  0.510955255E+00  0.250186877E+01
   H -0.730481565E+01  0.116593081E+02  0.242255783E+01
   H  0.732451468E+01  0.118440147E+02  0.259162801E+01
   H -0.158985237E+02 -0.169853423E+01  0.227371354E+01
   H  0.158476664E+02 -0.193541507E+01  0.255415034E+01
  Xx  0.125969854E+01 -0.707674143E+00 -0.159819849E+04
    11
 # iter = 35000  time[fs]=35.00000
   N -0.157636482E+01 -0.317559962E+01  0.249643044E+01
   N  0.147922810E+01 -0.344666281E+01  0.250163164E+01
   C -0.139908922E+01  0.246795479E+01  0.250985982E+01
   C  0.144218788E+01  0.245581024E+01  0.249449726E+01
   C -0.295520596E+01  0.221865596E+00  0.250796481E+01
   C  0.299394788E+01  0.518312339E+00  0.250192130E+01
   H -0.736456786E+01  0.117529801E+02  0.242178990E+01
   H  0.738436919E+01  0.119389695E+02  0.259248017E+01
   H -0.160247849E+02 -0.171710699E+01  0.227166757E+01
   H  0.159729860E+02 -0.195594230E+01  0.255454799E+01
  Xx  0.126161832E+01 -0.708587902E+00 -0.160984020E+04
    11
 # iter = 35250  time[fs]=35.25000
   N -0.158145957E+01 -0.319185724E+01  0.249627387E+01
   N  0.148433167E+01 -0.346525745E+01  0.250178176E+01
   C -0.140401919E+01  0.247536854E+01  0.250989803E+01
   C  0.144856656E+01  0.246217079E+01  0.249446602E+01
   C -0.296673465E+01  0.225299634E+00  0.250798767E+01
   C  0.300490705E+01  0.525741707E+00  0.250197224E+01
   H -0.742441554E+01  0.118467889E+02  0.242102092E+01
   H  0.744431733E+01  0.120340610E+02  0.259333368E+01
   H -0.161511716E+02 -0.173572295E+01  0.226961947E+01
   H  0.160984327E+02 -0.197651385E+01  0.255494579E+01
  Xx  0.126353809E+01 -0.709501662E+00 -0.162148192E+04
    11
 # iter = 35500  time[fs]=35.50000
   N -0.158648156E+01 -0.320817671E+01  0.249612036E+01
   N  0.148942158E+01 -0.348392576E+01  0.250193058E+01
   C -0.140892437E+01  0.248274968E+01  0.250992734E+01
   C  0.145500553E+01  0.246848546E+01  0.249445146E+01
   C -0.297823723E+01  0.228790169E+00  0.250801020E+01
   C  0.301582204E+01  0.533228695E+00  0.250202460E+01
   H -0.748435726E+01  0.119407334E+02  0.242025091E+01
   H  0.750435861E+01  0.121292859E+02  0.259418874E+01
   H -0.162776827E+02 -0.175438194E+01  0.226756929E+01
   H  0.162240037E+02 -0.199712894E+01  0.255534376E+01
  Xx  0.126545787E+01 -0.710415421E+00 -0.163312363E+04
    11
 # iter = 35750  time[fs]=35.75000
   N -0.159142660E+01 -0.322455252E+01  0.249596865E+01
   N  0.149449789E+01 -0.350264455E+01  0.250207822E+01
   C -0.141382372E+01  0.249012521E+01  0.250995653E+01
   C  0.146146654E+01  0.247475449E+01  0.249440569E+01
   C -0.298971750E+01  0.232325693E+00  0.250805830E+01
   C  0.302669711E+01  0.540772911E+00  0.250209447E+01
   H -0.754439090E+01  0.120348110E+02  0.241947980E+01
   H  0.756449106E+01  0.122246431E+02  0.259504517E+01
   H -0.164043179E+02 -0.177308313E+01  0.226551689E+01
   H  0.163496991E+02 -0.201778733E+01  0.255574173E+01
  Xx  0.126737765E+01 -0.711329181E+00 -0.164476535E+04
    11
 # iter = 36000  time[fs]=36.00000
   N -0.159630528E+01 -0.324098138E+01  0.249582159E+01
   N  0.149956417E+01 -0.352137211E+01  0.250222035E+01
   C -0.141876359E+01  0.249743443E+01  0.250996376E+01
   C  0.146797101E+01  0.248099530E+01  0.249437841E+01
   C -0.300121300E+01  0.235905692E+00  0.250809906E+01
   C  0.303749602E+01  0.548368331E+00  0.250214126E+01
   H -0.760451689E+01  0.121290195E+02  0.241870761E+01
   H  0.762471429E+01  0.123201316E+02  0.259590294E+01
   H -0.165310733E+02 -0.179182605E+01  0.226346231E+01
   H  0.164755165E+02 -0.203848891E+01  0.255613975E+01
  Xx  0.126929743E+01 -0.712242941E+00 -0.165640706E+04
    11
 # iter = 36250  time[fs]=36.25000
   N -0.160110861E+01 -0.325743064E+01  0.249567768E+01
   N  0.150461556E+01 -0.354008460E+01  0.250236645E+01
   C -0.142369908E+01  0.250470335E+01  0.250998968E+01
   C  0.147452081E+01  0.248717387E+01  0.249435088E+01
   C -0.301267076E+01  0.239539368E+00  0.250814232E+01
   C  0.304826193E+01  0.556016621E+00  0.250219260E+01
   H -0.766473394E+01  0.122233593E+02  0.241793464E+01
   H  0.768502804E+01  0.124157490E+02  0.259676227E+01
   H -0.166579495E+02 -0.181061042E+01  0.226140598E+01
   H  0.166014498E+02 -0.205923296E+01  0.255653817E+01
  Xx  0.127121721E+01 -0.713156700E+00 -0.166804878E+04
    11
 # iter = 36500  time[fs]=36.50000
   N -0.160584546E+01 -0.327388711E+01  0.249553414E+01
   N  0.150964034E+01 -0.355876223E+01  0.250251095E+01
   C -0.142865520E+01  0.251192723E+01  0.251002355E+01
   C  0.148111205E+01  0.249334078E+01  0.249431709E+01
   C -0.302412255E+01  0.243203877E+00  0.250818191E+01
   C  0.305894665E+01  0.563718722E+00  0.250223527E+01
   H -0.772503937E+01  0.123178278E+02  0.241716076E+01
   H  0.774542926E+01  0.125114925E+02  0.259762301E+01
   H -0.167849414E+02 -0.182943547E+01  0.225934781E+01
   H  0.167274986E+02 -0.208001873E+01  0.255693684E+01
  Xx  0.127313699E+01 -0.714070460E+00 -0.167969050E+04
    11
 # iter = 36750  time[fs]=36.75000
   N -0.161053831E+01 -0.329033344E+01  0.249539000E+01
   N  0.151463013E+01 -0.357739687E+01  0.250264883E+01
   C -0.143361330E+01  0.251912461E+01  0.251006101E+01
   C  0.148774065E+01  0.249944840E+01  0.249427868E+01
   C -0.303556437E+01  0.246931355E+00  0.250820345E+01
   C  0.306959010E+01  0.571444717E+00  0.250228498E+01
   H -0.778543189E+01  0.124124225E+02  0.241638600E+01
   H  0.780591708E+01  0.126073602E+02  0.259848543E+01
   H -0.169120486E+02 -0.184830089E+01  0.225728782E+01
   H  0.168536628E+02 -0.210084557E+01  0.255733577E+01
  Xx  0.127505676E+01 -0.714984219E+00 -0.169133221E+04
    11
 # iter = 37000  time[fs]=37.00000
   N -0.161518936E+01 -0.330674971E+01  0.249525333E+01
   N  0.151958980E+01 -0.359599319E+01  0.250278667E+01
   C -0.143858130E+01  0.252625419E+01  0.251011821E+01
   C  0.149441796E+01  0.250551543E+01  0.249424806E+01
   C -0.304697958E+01  0.250662304E+00  0.250822713E+01
   C  0.308016401E+01  0.579194526E+00  0.250232870E+01
   H -0.784591218E+01  0.125071412E+02  0.241561070E+01
   H  0.786649089E+01  0.127033516E+02  0.259934967E+01
   H -0.170392714E+02 -0.186720630E+01  0.225522634E+01
   H  0.169799424E+02 -0.212171309E+01  0.255773530E+01
  Xx  0.127697654E+01 -0.715897979E+00 -0.170297393E+04
    11
 # iter = 37250  time[fs]=37.25000
   N -0.161980621E+01 -0.332313696E+01  0.249511623E+01
   N  0.152451904E+01 -0.361456640E+01  0.250292454E+01
   C -0.144356143E+01  0.253335261E+01  0.251018182E+01
   C  0.150112009E+01  0.251153481E+01  0.249417864E+01
   C -0.305837211E+01  0.254434238E+00  0.250823730E+01
   C  0.309068234E+01  0.586995426E+00  0.250239891E+01
   H -0.790647730E+01  0.126019804E+02  0.241483466E+01
   H  0.792714915E+01  0.127994632E+02  0.260021545E+01
   H -0.171666091E+02 -0.188615060E+01  0.225316320E+01
   H  0.171063348E+02 -0.214262059E+01  0.255813501E+01
  Xx  0.127889632E+01 -0.716811738E+00 -0.171461564E+04
    11
 # iter = 37500  time[fs]=37.50000
   N -0.162440659E+01 -0.333949328E+01  0.249498005E+01
   N  0.152940669E+01 -0.363314821E+01  0.250306443E+01
   C -0.144855965E+01  0.254038624E+01  0.251024969E+01
   C  0.150785387E+01  0.251749646E+01  0.249411618E+01
   C -0.306976031E+01  0.258235359E+00  0.250822980E+01
   C  0.310113510E+01  0.594824479E+00  0.250247181E+01
   H -0.796712655E+01  0.126969394E+02  0.241405792E+01
   H  0.798789080E+01  0.128956944E+02  0.260108271E+01
   H -0.172940554E+02 -0.190513299E+01  0.225109847E+01
   H  0.172328339E+02 -0.216356755E+01  0.255853489E+01
  Xx  0.128081610E+01 -0.717725498E+00 -0.172625736E+04
    11
 # iter = 37750  time[fs]=37.75000
   N -0.162898951E+01 -0.335583313E+01  0.249484666E+01
   N  0.153426238E+01 -0.365176914E+01  0.250319667E+01
   C -0.145357503E+01  0.254735636E+01  0.251033663E+01
   C  0.151462074E+01  0.252338097E+01  0.249405940E+01
   C -0.308109279E+01  0.262058266E+00  0.250822949E+01
   C  0.311155935E+01  0.602706175E+00  0.250253465E+01
   H -0.802785838E+01  0.127920181E+02  0.241328051E+01
   H  0.804871477E+01  0.129920420E+02  0.260195108E+01
   H -0.174216082E+02 -0.192415304E+01  0.224903232E+01
   H  0.173594396E+02 -0.218455333E+01  0.255893477E+01
  Xx  0.128273588E+01 -0.718639257E+00 -0.173789907E+04
    11
 # iter = 38000  time[fs]=38.00000
   N -0.163356288E+01 -0.337217810E+01  0.249471736E+01
   N  0.153907471E+01 -0.367045151E+01  0.250332192E+01
   C -0.145859240E+01  0.255427743E+01  0.251041369E+01
   C  0.152139838E+01  0.252918411E+01  0.249398937E+01
   C -0.309243253E+01  0.265899322E+00  0.250822442E+01
   C  0.312192609E+01  0.610641306E+00  0.250259791E+01
   H -0.808867117E+01  0.128872131E+02  0.241250203E+01
   H  0.810961922E+01  0.130885043E+02  0.260282056E+01
   H -0.175492677E+02 -0.194321034E+01  0.224696445E+01
   H  0.174861519E+02 -0.220557709E+01  0.255933465E+01
  Xx  0.128465565E+01 -0.719553017E+00 -0.174954079E+04
    11
 # iter = 38250  time[fs]=38.25000
   N -0.163813899E+01 -0.338854201E+01  0.249459546E+01
   N  0.154384623E+01 -0.368921613E+01  0.250344652E+01
   C -0.146362224E+01  0.256114144E+01  0.251048959E+01
   C  0.152822345E+01  0.253489492E+01  0.249394198E+01
   C -0.310372961E+01  0.269778393E+00  0.250821927E+01
   C  0.313226149E+01  0.618633385E+00  0.250265858E+01
   H -0.814956389E+01  0.129825235E+02  0.241172245E+01
   H  0.817060360E+01  0.131850780E+02  0.260369115E+01
   H -0.176770337E+02 -0.196230450E+01  0.224489513E+01
   H  0.176129707E+02 -0.222663774E+01  0.255973453E+01
  Xx  0.128657543E+01 -0.720466776E+00 -0.176118250E+04
    11
 # iter = 38500  time[fs]=38.50000
   N -0.164272658E+01 -0.340494905E+01  0.249447803E+01
   N  0.154856964E+01 -0.370806942E+01  0.250357039E+01
   C -0.146864850E+01  0.256794854E+01  0.251056614E+01
   C  0.153505267E+01  0.254051591E+01  0.249390578E+01
   C -0.311499385E+01  0.273668287E+00  0.250822090E+01
   C  0.314256373E+01  0.626658210E+00  0.250268787E+01
   H -0.821053654E+01  0.130779480E+02  0.241094184E+01
   H  0.823166723E+01  0.132817628E+02  0.260456285E+01
   H -0.178049055E+02 -0.198143503E+01  0.224282438E+01
   H  0.177398962E+02 -0.224773503E+01  0.256013441E+01
  Xx  0.128849521E+01 -0.721380536E+00 -0.177282422E+04
    11
 # iter = 38750  time[fs]=38.75000
   N -0.164733505E+01 -0.342142105E+01  0.249436050E+01
   N  0.155323501E+01 -0.372700148E+01  0.250369073E+01
   C -0.147371098E+01  0.257471871E+01  0.251062506E+01
   C  0.154190012E+01  0.254605028E+01  0.249386047E+01
   C -0.312625716E+01  0.277577114E+00  0.250822749E+01
   C  0.315282533E+01  0.634762985E+00  0.250272883E+01
   H -0.827158914E+01  0.131734837E+02  0.241016018E+01
   H  0.829280842E+01  0.133785585E+02  0.260543566E+01
   H -0.179328765E+02 -0.200060129E+01  0.224075230E+01
   H  0.178669262E+02 -0.226886896E+01  0.256053429E+01
  Xx  0.129041499E+01 -0.722294296E+00 -0.178446593E+04
    11
 # iter = 39000  time[fs]=39.00000
   N -0.165196635E+01 -0.343796436E+01  0.249424941E+01
   N  0.155784689E+01 -0.374599055E+01  0.250380290E+01
   C -0.147879472E+01  0.258141563E+01  0.251068094E+01
   C  0.154878501E+01  0.255150884E+01  0.249382439E+01
   C -0.313747313E+01  0.281509516E+00  0.250824046E+01
   C  0.316306412E+01  0.642875346E+00  0.250277968E+01
   H -0.833272024E+01  0.132691294E+02  0.240937742E+01
   H  0.835402755E+01  0.134754648E+02  0.260630958E+01
   H -0.180609452E+02 -0.201980295E+01  0.223867910E+01
   H  0.179940545E+02 -0.229003923E+01  0.256093417E+01
  Xx  0.129233477E+01 -0.723208055E+00 -0.179610765E+04
    11
 # iter = 39250  time[fs]=39.25000
   N -0.165661511E+01 -0.345458721E+01  0.249414681E+01
   N  0.156240021E+01 -0.376500645E+01  0.250390911E+01
   C -0.148390401E+01  0.258806712E+01  0.251072192E+01
   C  0.155566650E+01  0.255687534E+01  0.249379086E+01
   C -0.314867312E+01  0.285452924E+00  0.250826352E+01
   C  0.317324459E+01  0.651073551E+00  0.250281042E+01
   H -0.839392693E+01  0.133648821E+02  0.240859354E+01
   H  0.841532219E+01  0.135724783E+02  0.260718461E+01
   H -0.181891117E+02 -0.203903909E+01  0.223660479E+01
   H  0.181212805E+02 -0.231124507E+01  0.256133405E+01
  Xx  0.129425455E+01 -0.724121815E+00 -0.180774936E+04
    11
 # iter = 39500  time[fs]=39.50000
   N -0.166128974E+01 -0.347129391E+01  0.249404808E+01
   N  0.156688215E+01 -0.378401676E+01  0.250401256E+01
   C -0.148901986E+01  0.259468307E+01  0.251075051E+01
   C  0.156260926E+01  0.256216312E+01  0.249374403E+01
   C -0.315984849E+01  0.289422572E+00  0.250828694E+01
   C  0.318341073E+01  0.659303648E+00  0.250286936E+01
   H -0.845520912E+01  0.134607421E+02  0.240780859E+01
   H  0.847669232E+01  0.136695985E+02  0.260806075E+01
   H -0.183173758E+02 -0.205830965E+01  0.223452937E+01
   H  0.182486041E+02 -0.233248626E+01  0.256173393E+01
  Xx  0.129617432E+01 -0.725035574E+00 -0.181939108E+04
    11
 # iter = 39750  time[fs]=39.75000
   N -0.166599633E+01 -0.348806695E+01  0.249395649E+01
   N  0.157130572E+01 -0.380299947E+01  0.250411554E+01
   C -0.149417320E+01  0.260123045E+01  0.251078025E+01
   C  0.156959371E+01  0.256735967E+01  0.249370952E+01
   C -0.317099267E+01  0.293395242E+00  0.250831224E+01
   C  0.319350527E+01  0.667616810E+00  0.250293047E+01
   H -0.851656680E+01  0.135567087E+02  0.240702309E+01
   H  0.853813795E+01  0.137668241E+02  0.260893800E+01
   H -0.184457376E+02 -0.207761455E+01  0.223245284E+01
   H  0.183760255E+02 -0.235376249E+01  0.256213381E+01
  Xx  0.129809410E+01 -0.725949334E+00 -0.183103280E+04
    11
 # iter = 40000  time[fs]=40.00000
   N -0.167073664E+01 -0.350488387E+01  0.249386936E+01
   N  0.157566196E+01 -0.382194326E+01  0.250421186E+01
   C -0.149934169E+01  0.260773840E+01  0.251080348E+01
   C  0.157660634E+01  0.257248262E+01  0.249367473E+01
   C -0.318214466E+01  0.297375141E+00  0.250834612E+01
   C  0.320358488E+01  0.675955167E+00  0.250296295E+01
   H -0.857799878E+01  0.136527795E+02  0.240623657E+01
   H  0.859965687E+01  0.138641541E+02  0.260981636E+01
   H -0.185741971E+02 -0.209695297E+01  0.223037520E+01
   H  0.185035446E+02 -0.237507311E+01  0.256253373E+01
  Xx  0.130001388E+01 -0.726863093E+00 -0.184267451E+04
    11
 # iter = 40250  time[fs]=40.25000
   N -0.167552196E+01 -0.352172077E+01  0.249379068E+01
   N  0.157995570E+01 -0.384084707E+01  0.250430303E+01
   C -0.150451603E+01  0.261420311E+01  0.251083195E+01
   C  0.158366323E+01  0.257753387E+01  0.249364977E+01
   C -0.319326595E+01  0.301380375E+00  0.250837678E+01
   C  0.321359324E+01  0.684377346E+00  0.250301019E+01
   H -0.863950196E+01  0.137489524E+02  0.240544915E+01
   H  0.866124685E+01  0.139615864E+02  0.261069583E+01
   H -0.187027514E+02 -0.211632470E+01  0.222829645E+01
   H  0.186311613E+02 -0.239641777E+01  0.256293400E+01
  Xx  0.130193366E+01 -0.727776853E+00 -0.185431623E+04
    11
 # iter = 40500  time[fs]=40.50000
   N -0.168035150E+01 -0.353855081E+01  0.249372345E+01
   N  0.158419711E+01 -0.385972191E+01  0.250438849E+01
   C -0.150970373E+01  0.262061235E+01  0.251085973E+01
   C  0.159075963E+01  0.258250928E+01  0.249363382E+01
   C -0.320438627E+01  0.305398791E+00  0.250840151E+01
   C  0.322356760E+01  0.692828049E+00  0.250304949E+01
   H -0.870107620E+01  0.138452275E+02  0.240466063E+01
   H  0.872290787E+01  0.140591209E+02  0.261157642E+01
   H -0.188313946E+02 -0.213572968E+01  0.222621659E+01
   H  0.187588705E+02 -0.241779623E+01  0.256333450E+01
  Xx  0.130385344E+01 -0.728690612E+00 -0.186595794E+04
    11
 # iter = 40750  time[fs]=40.75000
   N -0.168521467E+01 -0.355535973E+01  0.249366232E+01
   N  0.158837315E+01 -0.387858868E+01  0.250447593E+01
   C -0.151491397E+01  0.262696653E+01  0.251089446E+01
   C  0.159791894E+01  0.258740704E+01  0.249361302E+01
   C -0.321552173E+01  0.309418573E+00  0.250843464E+01
   C  0.323348094E+01  0.701333653E+00  0.250306201E+01
   H -0.876272148E+01  0.139416034E+02  0.240387099E+01
   H  0.878463964E+01  0.141567563E+02  0.261245811E+01
   H -0.189601267E+02 -0.215516714E+01  0.222413562E+01
   H  0.188866686E+02 -0.243920795E+01  0.256373515E+01
  Xx  0.130577321E+01 -0.729604372E+00 -0.187759966E+04
    11
 # iter = 41000  time[fs]=41.00000
   N -0.169011637E+01 -0.357213287E+01  0.249360796E+01
   N  0.159249211E+01 -0.389747615E+01  0.250455772E+01
   C -0.152011182E+01  0.263328642E+01  0.251092645E+01
   C  0.160510652E+01  0.259223577E+01  0.249360133E+01
   C -0.322664065E+01  0.313477906E+00  0.250845184E+01
   C  0.324335406E+01  0.709906069E+00  0.250310335E+01
   H -0.882443617E+01  0.140380773E+02  0.240308025E+01
   H  0.884643928E+01  0.142544895E+02  0.261334091E+01
   H -0.190889476E+02 -0.217463679E+01  0.222205354E+01
   H  0.190145555E+02 -0.246065219E+01  0.256413579E+01
  Xx  0.130769299E+01 -0.730518131E+00 -0.188924137E+04
    11
 # iter = 41250  time[fs]=41.25000
   N -0.169504159E+01 -0.358887321E+01  0.249356499E+01
   N  0.159657665E+01 -0.391641722E+01  0.250463409E+01
   C -0.152532305E+01  0.263955460E+01  0.251096661E+01
   C  0.161237887E+01  0.259696365E+01  0.249356584E+01
   C -0.323776199E+01  0.317569083E+00  0.250847232E+01
   C  0.325316843E+01  0.718517868E+00  0.250314670E+01
   H -0.888622021E+01  0.141346488E+02  0.240228839E+01
   H  0.890830709E+01  0.143523198E+02  0.261422482E+01
   H -0.192178573E+02 -0.219413799E+01  0.221997035E+01
   H  0.191425312E+02 -0.248212862E+01  0.256453644E+01
  Xx  0.130961277E+01 -0.731431891E+00 -0.190088309E+04
    11
 # iter = 41500  time[fs]=41.50000
   N -0.169998952E+01 -0.360558918E+01  0.249352967E+01
   N  0.160061094E+01 -0.393542665E+01  0.250470665E+01
   C -0.153053714E+01  0.264578028E+01  0.251100022E+01
   C  0.161967818E+01  0.260162827E+01  0.249353777E+01
   C -0.324889989E+01  0.321660019E+00  0.250849251E+01
   C  0.326293198E+01  0.727197139E+00  0.250318161E+01
   H -0.894807099E+01  0.142313180E+02  0.240149542E+01
   H  0.897024152E+01  0.144502439E+02  0.261510984E+01
   H -0.193468558E+02 -0.221367027E+01  0.221788605E+01
   H  0.192705957E+02 -0.250363707E+01  0.256493709E+01
  Xx  0.131153255E+01 -0.732345651E+00 -0.191252480E+04
    11
 # iter = 41750  time[fs]=41.75000
   N -0.170496641E+01 -0.362230201E+01  0.249349927E+01
   N  0.160459995E+01 -0.395450560E+01  0.250477552E+01
   C -0.153576930E+01  0.265195727E+01  0.251103553E+01
   C  0.162704323E+01  0.260619845E+01  0.249350742E+01
   C -0.326000146E+01  0.325781523E+00  0.250849728E+01
   C  0.327265734E+01  0.735946210E+00  0.250324266E+01
   H -0.900998838E+01  0.143280838E+02  0.240070135E+01
   H  0.903224256E+01  0.145482612E+02  0.261599598E+01
   H -0.194759432E+02 -0.223323348E+01  0.221580064E+01
   H  0.193987490E+02 -0.252517671E+01  0.256533774E+01
  Xx  0.131345233E+01 -0.733259410E+00 -0.192416652E+04
    11
 # iter = 42000  time[fs]=42.00000
   N -0.170997116E+01 -0.363903617E+01  0.249347784E+01
   N  0.160854374E+01 -0.397366031E+01  0.250484306E+01
   C -0.154101115E+01  0.265810973E+01  0.251107449E+01
   C  0.163445307E+01  0.261069336E+01  0.249346390E+01
   C -0.327109863E+01  0.329917113E+00  0.250850923E+01
   C  0.328232183E+01  0.744746369E+00  0.250328927E+01
   H -0.907197239E+01  0.144249429E+02  0.239990616E+01
   H  0.909430877E+01  0.146463717E+02  0.261688322E+01
   H -0.196051194E+02 -0.225282679E+01  0.221371411E+01
   H  0.195269912E+02 -0.254674711E+01  0.256573839E+01
  Xx  0.131537211E+01 -0.734173170E+00 -0.193580823E+04
    11
 # iter = 42250  time[fs]=42.25000
   N -0.171499765E+01 -0.365581513E+01  0.249346357E+01
   N  0.161244654E+01 -0.399287275E+01  0.250490960E+01
   C -0.154627412E+01  0.266422676E+01  0.251110477E+01
   C  0.164192088E+01  0.261510112E+01  0.249344486E+01
   C -0.328218274E+01  0.334069641E+00  0.250852144E+01
   C  0.329193466E+01  0.753600812E+00  0.250333182E+01
   H -0.913402280E+01  0.145218953E+02  0.239911023E+01
   H  0.915643723E+01  0.147445752E+02  0.261777157E+01
   H -0.197343804E+02 -0.227245008E+01  0.221162648E+01
   H  0.196553199E+02 -0.256834751E+01  0.256613904E+01
  Xx  0.131729188E+01 -0.735086929E+00 -0.194744995E+04
    11
 # iter = 42500  time[fs]=42.50000
   N -0.172004139E+01 -0.367266355E+01  0.249345502E+01
   N  0.161632595E+01 -0.401211336E+01  0.250496559E+01
   C -0.155156938E+01  0.267031496E+01  0.251113307E+01
   C  0.164945455E+01  0.261943871E+01  0.249343687E+01
   C -0.329321991E+01  0.338211252E+00  0.250852228E+01
   C  0.330149411E+01  0.762526827E+00  0.250336488E+01
   H -0.919613645E+01  0.146189404E+02  0.239831354E+01
   H  0.921862786E+01  0.148428683E+02  0.261866104E+01
   H -0.198637214E+02 -0.229210304E+01  0.220953774E+01
   H  0.197837291E+02 -0.258997789E+01  0.256653968E+01
  Xx  0.131921166E+01 -0.736000689E+00 -0.195909167E+04
    11
 # iter = 42750  time[fs]=42.75000
   N -0.172509556E+01 -0.368960058E+01  0.249346216E+01
   N  0.162017973E+01 -0.403135244E+01  0.250501797E+01
   C -0.155689397E+01  0.267638318E+01  0.251116921E+01
   C  0.165704371E+01  0.262369361E+01  0.249342044E+01
   C -0.330423176E+01  0.342366869E+00  0.250853628E+01
   C  0.331098862E+01  0.771486114E+00  0.250337995E+01
   H -0.925831226E+01  0.147160748E+02  0.239751657E+01
   H  0.928088066E+01  0.149412502E+02  0.261955161E+01
   H -0.199931423E+02 -0.231178491E+01  0.220744789E+01
   H  0.199122181E+02 -0.261163808E+01  0.256694033E+01
  Xx  0.132113144E+01 -0.736914448E+00 -0.197073338E+04
    11
 # iter = 43000  time[fs]=43.00000
   N -0.173015459E+01 -0.370661740E+01  0.249347575E+01
   N  0.162400589E+01 -0.405057046E+01  0.250506505E+01
   C -0.156225206E+01  0.268243784E+01  0.251119064E+01
   C  0.166471680E+01  0.262788084E+01  0.249343210E+01
   C -0.331522259E+01  0.346527380E+00  0.250854706E+01
   C  0.332041608E+01  0.780491548E+00  0.250339984E+01
   H -0.932055025E+01  0.148132981E+02  0.239671925E+01
   H  0.934319564E+01  0.150397209E+02  0.262044329E+01
   H -0.201226431E+02 -0.233149564E+01  0.220535692E+01
   H  0.200407871E+02 -0.263332723E+01  0.256734098E+01
  Xx  0.132305122E+01 -0.737828208E+00 -0.198237510E+04
    11
 # iter = 43250  time[fs]=43.25000
   N -0.173521775E+01 -0.372371362E+01  0.249349651E+01
   N  0.162782839E+01 -0.406975249E+01  0.250511094E+01
   C -0.156764501E+01  0.268846960E+01  0.251121509E+01
   C  0.167244098E+01  0.263198068E+01  0.249343088E+01
   C -0.332614945E+01  0.350688269E+00  0.250854915E+01
   C  0.332979807E+01  0.789571304E+00  0.250341552E+01
   H -0.938285042E+01  0.149106102E+02  0.239592152E+01
   H  0.940557279E+01  0.151382775E+02  0.262133609E+01
   H -0.202522239E+02 -0.235123507E+01  0.220326485E+01
   H  0.201694361E+02 -0.265504526E+01  0.256774163E+01
  Xx  0.132497100E+01 -0.738741967E+00 -0.199401681E+04
    11
 # iter = 43500  time[fs]=43.50000
   N -0.174028465E+01 -0.374087073E+01  0.249353083E+01
   N  0.163165317E+01 -0.408889497E+01  0.250515434E+01
   C -0.157305287E+01  0.269449035E+01  0.251124282E+01
   C  0.168023801E+01  0.263598401E+01  0.249341420E+01
   C -0.333707643E+01  0.354847664E+00  0.250856381E+01
   C  0.333910144E+01  0.798687974E+00  0.250344587E+01
   H -0.944521275E+01  0.150080110E+02  0.239512341E+01
   H  0.946801193E+01  0.152369185E+02  0.262222999E+01
   H -0.203818846E+02 -0.237100235E+01  0.220117167E+01
   H  0.202981649E+02 -0.267679207E+01  0.256814228E+01
  Xx  0.132689078E+01 -0.739655727E+00 -0.200565853E+04
    11
 # iter = 43750  time[fs]=43.75000
   N -0.174535551E+01 -0.375805691E+01  0.249357659E+01
   N  0.163546962E+01 -0.410801016E+01  0.250519289E+01
   C -0.157850245E+01  0.270047966E+01  0.251126029E+01
   C  0.168810125E+01  0.263993325E+01  0.249340847E+01
   C -0.334796955E+01  0.358998096E+00  0.250857166E+01
   C  0.334836377E+01  0.807880240E+00  0.250348641E+01
   H -0.950763540E+01  0.151054977E+02  0.239432476E+01
   H  0.953050992E+01  0.153356438E+02  0.262312501E+01
   H -0.205116253E+02 -0.239079740E+01  0.219907737E+01
   H  0.204269737E+02 -0.269856686E+01  0.256854292E+01
  Xx  0.132881055E+01 -0.740569486E+00 -0.201730024E+04
    11
 # iter = 44000  time[fs]=44.00000
   N -0.175041833E+01 -0.377525171E+01  0.249363368E+01
   N  0.163927963E+01 -0.412711623E+01  0.250522408E+01
   C -0.158393491E+01  0.270647683E+01  0.251127899E+01
   C  0.169602079E+01  0.264376063E+01  0.249337647E+01
   C -0.335883753E+01  0.363164689E+00  0.250858010E+01
   C  0.335755190E+01  0.817132319E+00  0.250352777E+01
   H -0.957011579E+01  0.152030687E+02  0.239352525E+01
   H  0.959306565E+01  0.154344531E+02  0.262402113E+01
   H -0.206414459E+02 -0.241062020E+01  0.219698197E+01
   H  0.205558623E+02 -0.272036940E+01  0.256894357E+01
  Xx  0.133073033E+01 -0.741483246E+00 -0.202894196E+04
    11
 # iter = 44250  time[fs]=44.25000
   N -0.175547617E+01 -0.379242895E+01  0.249370072E+01
   N  0.164310376E+01 -0.414623981E+01  0.250525226E+01
   C -0.158939035E+01  0.271244483E+01  0.251129654E+01
   C  0.170401328E+01  0.264752453E+01  0.249336132E+01
   C -0.336970736E+01  0.367329205E+00  0.250859754E+01
   C  0.336669029E+01  0.826436209E+00  0.250357791E+01
   H -0.963265391E+01  0.153007241E+02  0.239272463E+01
   H  0.965567911E+01  0.155333447E+02  0.262491837E+01
   H -0.207713464E+02 -0.243047029E+01  0.219488546E+01
   H  0.206848244E+02 -0.274219969E+01  0.256934422E+01
  Xx  0.133265011E+01 -0.742397006E+00 -0.204058367E+04
    11
 # iter = 44500  time[fs]=44.50000
   N -0.176051865E+01 -0.380957387E+01  0.249377685E+01
   N  0.164695286E+01 -0.416541385E+01  0.250527879E+01
   C -0.159484198E+01  0.271837958E+01  0.251130095E+01
   C  0.171209168E+01  0.265120405E+01  0.249334819E+01
   C -0.338056744E+01  0.371486268E+00  0.250861174E+01
   C  0.337575646E+01  0.835813238E+00  0.250361940E+01
   H -0.969524977E+01  0.153984637E+02  0.239192290E+01
   H  0.971835030E+01  0.156323168E+02  0.262581671E+01
   H -0.209013269E+02 -0.245034702E+01  0.219278783E+01
   H  0.208138577E+02 -0.276405712E+01  0.256974487E+01
  Xx  0.133456989E+01 -0.743310765E+00 -0.205222539E+04
    11
 # iter = 44750  time[fs]=44.75000
   N -0.176553532E+01 -0.382668447E+01  0.249386472E+01
   N  0.165082359E+01 -0.418464811E+01  0.250530512E+01
   C -0.160028660E+01  0.272429811E+01  0.251131086E+01
   C  0.172020430E+01  0.265479826E+01  0.249334870E+01
   C -0.339143852E+01  0.375674014E+00  0.250862760E+01
   C  0.338476312E+01  0.845249529E+00  0.250363959E+01
   H -0.975790336E+01  0.154962842E+02  0.239112005E+01
   H  0.978107922E+01  0.157313689E+02  0.262671617E+01
   H -0.210313848E+02 -0.247025041E+01  0.219068910E+01
   H  0.209429619E+02 -0.278594120E+01  0.257014552E+01
  Xx  0.133648967E+01 -0.744224525E+00 -0.206386710E+04
    11
 # iter = 45000  time[fs]=45.00000
   N -0.177052925E+01 -0.384375551E+01  0.249396149E+01
   N  0.165472173E+01 -0.420395032E+01  0.250532260E+01
   C -0.160573122E+01  0.273019412E+01  0.251131226E+01
   C  0.172841561E+01  0.265832096E+01  0.249336113E+01
   C -0.340231064E+01  0.379870781E+00  0.250865333E+01
   C  0.339372055E+01  0.854726532E+00  0.250366700E+01
   H -0.982061362E+01  0.155941847E+02  0.239031623E+01
   H  0.984386479E+01  0.158305009E+02  0.262761673E+01
   H -0.211615140E+02 -0.249017987E+01  0.218858926E+01
   H  0.210721373E+02 -0.280785192E+01  0.257054616E+01
  Xx  0.133840944E+01 -0.745138284E+00 -0.207550882E+04
    11
 # iter = 45250  time[fs]=45.25000
   N -0.177549750E+01 -0.386080078E+01  0.249406831E+01
   N  0.165866343E+01 -0.422331924E+01  0.250533471E+01
   C -0.161116828E+01  0.273604341E+01  0.251130888E+01
   C  0.173666449E+01  0.266177904E+01  0.249337823E+01
   C -0.341317204E+01  0.384086339E+00  0.250866684E+01
   C  0.340261670E+01  0.864271231E+00  0.250367771E+01
   H -0.988337867E+01  0.156921651E+02  0.238951154E+01
   H  0.990670384E+01  0.159297126E+02  0.262851841E+01
   H -0.212917142E+02 -0.251013486E+01  0.218648830E+01
   H  0.212013837E+02 -0.282978887E+01  0.257094681E+01
  Xx  0.134032922E+01 -0.746052044E+00 -0.208715053E+04
    11
 # iter = 45500  time[fs]=45.50000
   N -0.178042902E+01 -0.387784489E+01  0.249418337E+01
   N  0.166265661E+01 -0.424273967E+01  0.250534133E+01
   C -0.161660082E+01  0.274187260E+01  0.251131159E+01
   C  0.174498010E+01  0.266515546E+01  0.249338387E+01
   C -0.342406475E+01  0.388328783E+00  0.250869321E+01
   C  0.341144279E+01  0.873875727E+00  0.250369421E+01
   H -0.994619729E+01  0.157902254E+02  0.238870634E+01
   H  0.996959619E+01  0.160290012E+02  0.262942119E+01
   H -0.214219856E+02 -0.253011539E+01  0.218438624E+01
   H  0.213307011E+02 -0.285175136E+01  0.257134746E+01
  Xx  0.134224900E+01 -0.746965803E+00 -0.209879225E+04
    11
 # iter = 45750  time[fs]=45.75000
   N -0.178533109E+01 -0.389490932E+01  0.249430849E+01
   N  0.166669684E+01 -0.426218820E+01  0.250534672E+01
   C -0.162205839E+01  0.274766022E+01  0.251131045E+01
   C  0.175337454E+01  0.266847513E+01  0.249339226E+01
   C -0.343493881E+01  0.392574286E+00  0.250871455E+01
   C  0.342023991E+01  0.883534469E+00  0.250372647E+01
   H -0.100090692E+02  0.158883637E+02  0.238790058E+01
   H  0.100325418E+02  0.161283685E+02  0.263032509E+01
   H -0.215523279E+02 -0.255012110E+01  0.218228306E+01
   H  0.214600896E+02 -0.287373939E+01  0.257174811E+01
  Xx  0.134416878E+01 -0.747879563E+00 -0.211043397E+04
    11
 # iter = 46000  time[fs]=46.00000
   N -0.179019324E+01 -0.391201975E+01  0.249443965E+01
   N  0.167078238E+01 -0.428163458E+01  0.250534706E+01
   C -0.162750941E+01  0.275339709E+01  0.251130646E+01
   C  0.176183477E+01  0.267171196E+01  0.249338426E+01
   C -0.344582700E+01  0.396862585E+00  0.250872771E+01
   C  0.342894901E+01  0.893256674E+00  0.250376299E+01
   H -0.100719944E+02  0.159865776E+02  0.238709414E+01
   H  0.100955408E+02  0.162278127E+02  0.263123010E+01
   H -0.216827414E+02 -0.257015126E+01  0.218017878E+01
   H  0.215895492E+02 -0.289575275E+01  0.257214876E+01
  Xx  0.134608856E+01 -0.748793322E+00 -0.212207568E+04
    11
 # iter = 46250  time[fs]=46.25000
   N -0.179501243E+01 -0.392919428E+01  0.249458629E+01
   N  0.167492385E+01 -0.430105654E+01  0.250533987E+01
   C -0.163297777E+01  0.275913492E+01  0.251131047E+01
   C  0.177035645E+01  0.267489751E+01  0.249336981E+01
   C -0.345670361E+01  0.401166537E+00  0.250874475E+01
   C  0.343761672E+01  0.903037475E+00  0.250380244E+01
   H -0.101349729E+02  0.160848666E+02  0.238628720E+01
   H  0.101585930E+02  0.163273280E+02  0.263213621E+01
   H -0.218132259E+02 -0.259020584E+01  0.217807338E+01
   H  0.217190798E+02 -0.291779064E+01  0.257254941E+01
  Xx  0.134800834E+01 -0.749707082E+00 -0.213371740E+04
    11
 # iter = 46500  time[fs]=46.50000
   N -0.179979102E+01 -0.394644701E+01  0.249474291E+01
   N  0.167913426E+01 -0.432044374E+01  0.250532591E+01
   C -0.163847365E+01  0.276480117E+01  0.251130577E+01
   C  0.177895938E+01  0.267800967E+01  0.249336918E+01
   C -0.346757523E+01  0.405479434E+00  0.250876609E+01
   C  0.344623284E+01  0.912893269E+00  0.250383522E+01
   H -0.101980047E+02  0.161832303E+02  0.238547992E+01
   H  0.102216985E+02  0.164269143E+02  0.263304344E+01
   H -0.219437814E+02 -0.261028484E+01  0.217596687E+01
   H  0.218486815E+02 -0.293985300E+01  0.257295005E+01
  Xx  0.134992811E+01 -0.750620841E+00 -0.214535911E+04
    11
 # iter = 46750  time[fs]=46.75000
   N -0.180451735E+01 -0.396377146E+01  0.249490376E+01
   N  0.168339864E+01 -0.433979241E+01  0.250530887E+01
   C -0.164398677E+01  0.277044004E+01  0.251131312E+01
   C  0.178762222E+01  0.268107143E+01  0.249336155E+01
   C -0.347845251E+01  0.409821393E+00  0.250877628E+01
   C  0.345476943E+01  0.922787667E+00  0.250386336E+01
   H -0.102610898E+02  0.162816651E+02  0.238467240E+01
   H  0.102848573E+02  0.165265717E+02  0.263395178E+01
   H -0.220744080E+02 -0.263038757E+01  0.217385926E+01
   H  0.219783535E+02 -0.296193979E+01  0.257335070E+01
  Xx  0.135184789E+01 -0.751534601E+00 -0.215700083E+04
    11
 # iter = 47000  time[fs]=47.00000
   N -0.180919395E+01 -0.398116306E+01  0.249507887E+01
   N  0.168771513E+01 -0.435911406E+01  0.250528767E+01
   C -0.164953366E+01  0.277605211E+01  0.251131851E+01
   C  0.179636534E+01  0.268405493E+01  0.249337275E+01
   C -0.348930205E+01  0.414169002E+00  0.250878925E+01
   C  0.346327760E+01  0.932768195E+00  0.250387085E+01
   H -0.103242265E+02  0.163801710E+02  0.238386487E+01
   H  0.103480666E+02  0.166263001E+02  0.263486122E+01
   H -0.222051057E+02 -0.265051362E+01  0.217175053E+01
   H  0.221080895E+02 -0.298405100E+01  0.257375135E+01
  Xx  0.135376767E+01 -0.752448361E+00 -0.216864254E+04
    11
 # iter = 47250  time[fs]=47.25000
   N -0.181382120E+01 -0.399860032E+01  0.249526388E+01
   N  0.169209587E+01 -0.437842481E+01  0.250526096E+01
   C -0.165510159E+01  0.278162490E+01  0.251132085E+01
   C  0.180515783E+01  0.268699401E+01  0.249338086E+01
   C -0.350013588E+01  0.418558163E+00  0.250880369E+01
   C  0.347171872E+01  0.942800068E+00  0.250388893E+01
   H -0.103874121E+02  0.164787479E+02  0.238305709E+01
   H  0.104113249E+02  0.167260997E+02  0.263577178E+01
   H -0.223358713E+02 -0.267066298E+01  0.216964070E+01
   H  0.222378876E+02 -0.300618621E+01  0.257415200E+01
  Xx  0.135568745E+01 -0.753362120E+00 -0.218028426E+04
    11
 # iter = 47500  time[fs]=47.50000
   N -0.181839006E+01 -0.401605033E+01  0.249545589E+01
   N  0.169653085E+01 -0.439775794E+01  0.250522788E+01
   C -0.166070587E+01  0.278715190E+01  0.251133582E+01
   C  0.181402524E+01  0.268984223E+01  0.249339484E+01
   C -0.351096587E+01  0.422953787E+00  0.250880924E+01
   C  0.348008427E+01  0.952902081E+00  0.250389552E+01
   H -0.104506466E+02  0.165773959E+02  0.238224885E+01
   H  0.104746320E+02  0.168259702E+02  0.263668345E+01
   H -0.224666993E+02 -0.269083565E+01  0.216752975E+01
   H  0.223677479E+02 -0.302834475E+01  0.257455265E+01
  Xx  0.135760723E+01 -0.754275880E+00 -0.219192597E+04
    11
 # iter = 47750  time[fs]=47.75000
   N -0.182290883E+01 -0.403349314E+01  0.249565680E+01
   N  0.170101354E+01 -0.441714387E+01  0.250519038E+01
   C -0.166634069E+01  0.279265662E+01  0.251134345E+01
   C  0.182296650E+01  0.269263955E+01  0.249338513E+01
   C -0.352176847E+01  0.427364204E+00  0.250882060E+01
   C  0.348841150E+01  0.963087693E+00  0.250392133E+01
   H -0.105139299E+02  0.166761149E+02  0.238143995E+01
   H  0.105379879E+02  0.169259118E+02  0.263759623E+01
   H -0.225975895E+02 -0.271103163E+01  0.216541769E+01
   H  0.224976704E+02 -0.305052660E+01  0.257495329E+01
  Xx  0.135952700E+01 -0.755189639E+00 -0.220356769E+04
    11
 # iter = 48000  time[fs]=48.00000
   N -0.182737838E+01 -0.405091098E+01  0.249586261E+01
   N  0.170554310E+01 -0.443659640E+01  0.250514649E+01
   C -0.167201427E+01  0.279810839E+01  0.251134686E+01
   C  0.183197484E+01  0.269534591E+01  0.249338133E+01
   C -0.353256082E+01  0.431805660E+00  0.250883358E+01
   C  0.349666002E+01  0.973326272E+00  0.250394578E+01
   H -0.105772621E+02  0.167749050E+02  0.238063048E+01
   H  0.106013927E+02  0.170259245E+02  0.263851012E+01
   H -0.227285419E+02 -0.273125026E+01  0.216330452E+01
   H  0.226276551E+02 -0.307273155E+01  0.257535394E+01
  Xx  0.136144678E+01 -0.756103399E+00 -0.221520940E+04
    11
 # iter = 48250  time[fs]=48.25000
   N -0.183179640E+01 -0.406828498E+01  0.249607670E+01
   N  0.171011638E+01 -0.445612081E+01  0.250509659E+01
   C -0.167769134E+01  0.280354044E+01  0.251135973E+01
   C  0.184105231E+01  0.269797677E+01  0.249336600E+01
   C -0.354332966E+01  0.436269264E+00  0.250883675E+01
   C  0.350484274E+01  0.983649604E+00  0.250398391E+01
   H -0.106406431E+02  0.168737662E+02  0.237982073E+01
   H  0.106648463E+02  0.171260082E+02  0.263942511E+01
   H -0.228595564E+02 -0.275149110E+01  0.216119025E+01
   H  0.227577019E+02 -0.309495879E+01  0.257575459E+01
  Xx  0.136336656E+01 -0.757017158E+00 -0.222685112E+04
    11
 # iter = 48500  time[fs]=48.50000
   N -0.183617443E+01 -0.408561622E+01  0.249629279E+01
   N  0.171474349E+01 -0.447571208E+01  0.250504501E+01
   C -0.168341279E+01  0.280894121E+01  0.251136486E+01
   C  0.185021050E+01  0.270052900E+01  0.249335051E+01
   C -0.355408068E+01  0.440749556E+00  0.250885105E+01
   C  0.351296721E+01  0.994062335E+00  0.250401375E+01
   H -0.107040730E+02  0.169726984E+02  0.237901067E+01
   H  0.107283488E+02  0.172261587E+02  0.264034122E+01
   H -0.229906331E+02 -0.277175413E+01  0.215907486E+01
   H  0.228878109E+02 -0.311720822E+01  0.257615524E+01
  Xx  0.136528634E+01 -0.757930918E+00 -0.223849284E+04
    11
 # iter = 48750  time[fs]=48.75000
   N -0.184051544E+01 -0.410290880E+01  0.249651682E+01
   N  0.171942038E+01 -0.449535028E+01  0.250498406E+01
   C -0.168915026E+01  0.281429252E+01  0.251135992E+01
   C  0.185942470E+01  0.270298116E+01  0.249335316E+01
   C -0.356483213E+01  0.445250919E+00  0.250886678E+01
   C  0.352102417E+01  0.100453629E+01  0.250404146E+01
   H -0.107675515E+02  0.170717016E+02  0.237820061E+01
   H  0.107918995E+02  0.173263714E+02  0.264125844E+01
   H -0.231217719E+02 -0.279203938E+01  0.215695836E+01
   H  0.230179820E+02 -0.313947986E+01  0.257655589E+01
  Xx  0.136720612E+01 -0.758844677E+00 -0.225013455E+04
    11
 # iter = 49000  time[fs]=49.00000
   N -0.184482458E+01 -0.412018811E+01  0.249674253E+01
   N  0.172413799E+01 -0.451501245E+01  0.250491730E+01
   C -0.169491861E+01  0.281961578E+01  0.251136425E+01
   C  0.186874248E+01  0.270536347E+01  0.249335578E+01
   C -0.357556184E+01  0.449771535E+00  0.250887828E+01
   C  0.352899225E+01  0.101509338E+01  0.250405286E+01
   H -0.108310754E+02  0.171707754E+02  0.237739054E+01
   H  0.108554951E+02  0.174266463E+02  0.264217677E+01
   H -0.232529730E+02 -0.281234637E+01  0.215484075E+01
   H  0.231482154E+02 -0.316177371E+01  0.257695653E+01
  Xx  0.136912590E+01 -0.759758437E+00 -0.226177627E+04
    11
 # iter = 49250  time[fs]=49.25000
   N -0.184910072E+01 -0.413747699E+01  0.249697338E+01
   N  0.172889434E+01 -0.453466695E+01  0.250484844E+01
   C -0.170071193E+01  0.282491071E+01  0.251135998E+01
   C  0.187813202E+01  0.270765688E+01  0.249337164E+01
   C -0.358627583E+01  0.454324121E+00  0.250890057E+01
   C  0.353690617E+01  0.102572219E+01  0.250404967E+01
   H -0.108946437E+02  0.172699132E+02  0.237658032E+01
   H  0.109191350E+02  0.175269833E+02  0.264309616E+01
   H -0.233842362E+02 -0.283267446E+01  0.215272204E+01
   H  0.232785109E+02 -0.318408911E+01  0.257735718E+01
  Xx  0.137104567E+01 -0.760672196E+00 -0.227341798E+04
    11
 # iter = 49500  time[fs]=49.50000
   N -0.185335179E+01 -0.415479780E+01  0.249721008E+01
   N  0.173368370E+01 -0.455428367E+01  0.250477185E+01
   C -0.170651491E+01  0.283015752E+01  0.251134368E+01
   C  0.188761215E+01  0.270987817E+01  0.249338496E+01
   C -0.359698660E+01  0.458905522E+00  0.250892798E+01
   C  0.354471203E+01  0.103639992E+01  0.250406789E+01
   H -0.109582563E+02  0.173691132E+02  0.237576990E+01
   H  0.109828194E+02  0.176273825E+02  0.264401661E+01
   H -0.235155615E+02 -0.285302365E+01  0.215060221E+01
   H  0.234088686E+02 -0.320642562E+01  0.257775783E+01
  Xx  0.137296545E+01 -0.761585956E+00 -0.228505970E+04
    11
 # iter = 49750  time[fs]=49.75000
   N -0.185758054E+01 -0.417217877E+01  0.249744773E+01
   N  0.173850115E+01 -0.457385718E+01  0.250468992E+01
   C -0.171235382E+01  0.283538090E+01  0.251134466E+01
   C  0.189718679E+01  0.271203403E+01  0.249339092E+01
   C -0.360768522E+01  0.463491890E+00  0.250894266E+01
   C  0.355244898E+01  0.104714885E+01  0.250406794E+01
   H -0.110219135E+02  0.174683754E+02  0.237495949E+01
   H  0.110465482E+02  0.177278439E+02  0.264493816E+01
   H -0.236469491E+02 -0.287339393E+01  0.214848127E+01
   H  0.235392884E+02 -0.322878321E+01  0.257815848E+01
  Xx  0.137488523E+01 -0.762499716E+00 -0.229670141E+04
    11
 # iter = 50000  time[fs]=50.00000
   N -0.186178781E+01 -0.418963377E+01  0.249768866E+01
   N  0.174332772E+01 -0.459338755E+01  0.250460474E+01
   C -0.171821807E+01  0.284056069E+01  0.251132784E+01
   C  0.190685031E+01  0.271409830E+01  0.249336827E+01
   C -0.361837729E+01  0.468115817E+00  0.250897301E+01
   C  0.356010383E+01  0.105795815E+01  0.250410012E+01
   H -0.110856150E+02  0.175676997E+02  0.237414907E+01
   H  0.111103214E+02  0.178283675E+02  0.264586083E+01
   H -0.237783988E+02 -0.289378525E+01  0.214635922E+01
   H  0.236697704E+02 -0.325116190E+01  0.257855913E+01
  Xx  0.137680501E+01 -0.763413475E+00 -0.230834313E+04
    11
 # iter = 50250  time[fs]=50.25000
   N -0.186598249E+01 -0.420715837E+01  0.249793329E+01
   N  0.174815714E+01 -0.461288623E+01  0.250451197E+01
   C -0.172409693E+01  0.284570195E+01  0.251131195E+01
   C  0.191658331E+01  0.271609261E+01  0.249336079E+01
   C -0.362907524E+01  0.472750502E+00  0.250899784E+01
   C  0.356768870E+01  0.106883153E+01  0.250413279E+01
   H -0.111493609E+02  0.176670862E+02  0.237333866E+01
   H  0.111741390E+02  0.179289532E+02  0.264678461E+01
   H -0.239099075E+02 -0.291419683E+01  0.214423606E+01
   H  0.238003138E+02 -0.327356168E+01  0.257895978E+01
  Xx  0.137872479E+01 -0.764327235E+00 -0.231998484E+04
    11
 # iter = 50500  time[fs]=50.50000
   N -0.187015925E+01 -0.422475174E+01  0.249818152E+01
   N  0.175298873E+01 -0.463237430E+01  0.250441667E+01
   C -0.172999643E+01  0.285083031E+01  0.251131330E+01
   C  0.192640296E+01  0.271799759E+01  0.249332587E+01
   C -0.363974035E+01  0.477412036E+00  0.250900896E+01
   C  0.357519311E+01  0.107978138E+01  0.250415833E+01
   H -0.112131512E+02  0.177665349E+02  0.237252824E+01
   H  0.112380010E+02  0.180296011E+02  0.264770950E+01
   H -0.240414724E+02 -0.293462839E+01  0.214211179E+01
   H  0.239309117E+02 -0.329598189E+01  0.257936042E+01
  Xx  0.138064457E+01 -0.765240994E+00 -0.233162656E+04
    11
 # iter = 50750  time[fs]=50.75000
   N -0.187432888E+01 -0.424239073E+01  0.249843107E+01
   N  0.175781375E+01 -0.465188684E+01  0.250431589E+01
   C -0.173591991E+01  0.285590807E+01  0.251129898E+01
   C  0.193630614E+01  0.271983189E+01  0.249333128E+01
   C -0.365042542E+01  0.482084742E+00  0.250902973E+01
   C  0.358262706E+01  0.109078871E+01  0.250417045E+01
   H -0.112769860E+02  0.178660458E+02  0.237171783E+01
   H  0.113019074E+02  0.181303112E+02  0.264863550E+01
   H -0.241730905E+02 -0.295507994E+01  0.213998641E+01
   H  0.240615630E+02 -0.331842208E+01  0.257976107E+01
  Xx  0.138256434E+01 -0.766154754E+00 -0.234326827E+04
    11
 # iter = 51000  time[fs]=51.00000
   N -0.187849952E+01 -0.426005618E+01  0.249868274E+01
   N  0.176262873E+01 -0.467145924E+01  0.250420932E+01
   C -0.174186689E+01  0.286096580E+01  0.251129882E+01
   C  0.194630287E+01  0.272157490E+01  0.249334398E+01
   C -0.366109293E+01  0.486774228E+00  0.250904257E+01
   C  0.358997769E+01  0.110187304E+01  0.250417082E+01
   H -0.113408651E+02  0.179656188E+02  0.237090742E+01
   H  0.113658582E+02  0.182310834E+02  0.264956261E+01
   H -0.243047620E+02 -0.297555147E+01  0.213785992E+01
   H  0.241922675E+02 -0.334088225E+01  0.258016172E+01
  Xx  0.138448412E+01 -0.767068513E+00 -0.235490999E+04
    11
 # iter = 51250  time[fs]=51.25000
   N -0.188266264E+01 -0.427772344E+01  0.249893898E+01
   N  0.176741812E+01 -0.469110420E+01  0.250410325E+01
   C -0.174783228E+01  0.286600067E+01  0.251131058E+01
   C  0.195640858E+01  0.272325157E+01  0.249335421E+01
   C -0.367176726E+01  0.491468925E+00  0.250903505E+01
   C  0.359723461E+01  0.111301157E+01  0.250415489E+01
   H -0.114047874E+02  0.180652540E+02  0.237009700E+01
   H  0.114298510E+02  0.183319178E+02  0.265049082E+01
   H -0.244364867E+02 -0.299604298E+01  0.213573232E+01
   H  0.243230253E+02 -0.336336241E+01  0.258056237E+01
  Xx  0.138640390E+01 -0.767982273E+00 -0.236655171E+04
    11
 # iter = 51500  time[fs]=51.50000
   N -0.188683316E+01 -0.429536688E+01  0.249919409E+01
   N  0.177218277E+01 -0.471081685E+01  0.250399325E+01
   C -0.175381695E+01  0.287101318E+01  0.251130912E+01
   C  0.196661319E+01  0.272483621E+01  0.249338410E+01
   C -0.368243536E+01  0.496185311E+00  0.250903971E+01
   C  0.360441277E+01  0.112423308E+01  0.250414866E+01
   H -0.114687499E+02  0.181649514E+02  0.236928659E+01
   H  0.114938837E+02  0.184328144E+02  0.265142015E+01
   H -0.245682647E+02 -0.301655442E+01  0.213360361E+01
   H  0.244538364E+02 -0.338586256E+01  0.258096302E+01
  Xx  0.138832368E+01 -0.768896032E+00 -0.237819342E+04
    11
 # iter = 51750  time[fs]=51.75000
   N -0.189100994E+01 -0.431296954E+01  0.249945145E+01
   N  0.177692372E+01 -0.473059454E+01  0.250387761E+01
   C -0.175983448E+01  0.287601601E+01  0.251132320E+01
   C  0.197691670E+01  0.272632630E+01  0.249337835E+01
   C -0.369309926E+01  0.500896193E+00  0.250902921E+01
   C  0.361150838E+01  0.113553441E+01  0.250415927E+01
   H -0.115327523E+02  0.182647109E+02  0.236847617E+01
   H  0.115579565E+02  0.185337686E+02  0.265235059E+01
   H -0.247000961E+02 -0.303708498E+01  0.213147379E+01
   H  0.245847008E+02 -0.340838231E+01  0.258136366E+01
  Xx  0.139024346E+01 -0.769809792E+00 -0.238983514E+04
    11
 # iter = 52000  time[fs]=52.00000
   N -0.189519408E+01 -0.433052850E+01  0.249970949E+01
   N  0.178161689E+01 -0.475041433E+01  0.250375943E+01
   C -0.176587175E+01  0.288099631E+01  0.251134350E+01
   C  0.198732299E+01  0.272773588E+01  0.249338029E+01
   C -0.370375914E+01  0.505639054E+00  0.250900750E+01
   C  0.361850376E+01  0.114692020E+01  0.250416714E+01
   H -0.115967947E+02  0.183645327E+02  0.236766558E+01
   H  0.116220691E+02  0.186347761E+02  0.265328206E+01
   H -0.248319807E+02 -0.305763441E+01  0.212934286E+01
   H  0.247156185E+02 -0.343092095E+01  0.258176431E+01
  Xx  0.139216323E+01 -0.770723551E+00 -0.240147685E+04
    11
 # iter = 52250  time[fs]=52.25000
   N -0.189939788E+01 -0.434804898E+01  0.249996490E+01
   N  0.178626572E+01 -0.477024767E+01  0.250363963E+01
   C -0.177193695E+01  0.288596627E+01  0.251134762E+01
   C  0.199784319E+01  0.272903876E+01  0.249337499E+01
   C -0.371443460E+01  0.510365128E+00  0.250900299E+01
   C  0.362544176E+01  0.115838830E+01  0.250420288E+01
   H -0.116608770E+02  0.184644159E+02  0.236685481E+01
   H  0.116862218E+02  0.187358369E+02  0.265421456E+01
   H -0.249639186E+02 -0.307820272E+01  0.212721082E+01
   H  0.248465895E+02 -0.345347846E+01  0.258216496E+01
  Xx  0.139408301E+01 -0.771637311E+00 -0.241311857E+04
    11
 # iter = 52500  time[fs]=52.50000
   N -0.190361953E+01 -0.436554232E+01  0.250022346E+01
   N  0.179086293E+01 -0.479005921E+01  0.250351720E+01
   C -0.177802039E+01  0.289091440E+01  0.251136991E+01
   C  0.200844574E+01  0.273026192E+01  0.249339144E+01
   C -0.372508917E+01  0.515109481E+00  0.250898233E+01
   C  0.363226499E+01  0.116994806E+01  0.250419541E+01
   H -0.117249993E+02  0.185643540E+02  0.236604404E+01
   H  0.117504144E+02  0.188369510E+02  0.265514817E+01
   H -0.250959098E+02 -0.309878991E+01  0.212507767E+01
   H  0.249776138E+02 -0.347605485E+01  0.258256561E+01
  Xx  0.139600279E+01 -0.772551071E+00 -0.242476028E+04
    11
 # iter = 52750  time[fs]=52.75000
   N -0.190786119E+01 -0.438303536E+01  0.250047986E+01
   N  0.179540700E+01 -0.480982726E+01  0.250339192E+01
   C -0.178411903E+01  0.289585847E+01  0.251138147E+01
   C  0.201917944E+01  0.273138085E+01  0.249342545E+01
   C -0.373576007E+01  0.519874533E+00  0.250896030E+01
   C  0.363902798E+01  0.118158456E+01  0.250418387E+01
   H -0.117891616E+02  0.186643455E+02  0.236523327E+01
   H  0.118146470E+02  0.189381184E+02  0.265608289E+01
   H -0.252279542E+02 -0.311939584E+01  0.212294341E+01
   H  0.251086914E+02 -0.349865012E+01  0.258296626E+01
  Xx  0.139792257E+01 -0.773464830E+00 -0.243640200E+04
    11
 # iter = 53000  time[fs]=53.00000
   N -0.191213544E+01 -0.440055716E+01  0.250072992E+01
   N  0.179990434E+01 -0.482954960E+01  0.250326561E+01
   C -0.179024755E+01  0.290078778E+01  0.251138105E+01
   C  0.202998522E+01  0.273241315E+01  0.249346953E+01
   C -0.374641668E+01  0.524641652E+00  0.250895668E+01
   C  0.364569281E+01  0.119333521E+01  0.250416804E+01
   H -0.118533639E+02  0.187643902E+02  0.236442250E+01
   H  0.118789196E+02  0.190393390E+02  0.265701872E+01
   H -0.253600520E+02 -0.314001968E+01  0.212080804E+01
   H  0.252398222E+02 -0.352126390E+01  0.258336690E+01
  Xx  0.139984235E+01 -0.774378590E+00 -0.244804371E+04
    11
 # iter = 53250  time[fs]=53.25000
   N -0.191644193E+01 -0.441813212E+01  0.250098241E+01
   N  0.180434414E+01 -0.484922626E+01  0.250313499E+01
   C -0.179637528E+01  0.290569194E+01  0.251138881E+01
   C  0.204090949E+01  0.273333119E+01  0.249350803E+01
   C -0.375707745E+01  0.529415822E+00  0.250894179E+01
   C  0.365228532E+01  0.120516249E+01  0.250414610E+01
   H -0.119176061E+02  0.188644882E+02  0.236361173E+01
   H  0.119432321E+02  0.191406130E+02  0.265795566E+01
   H -0.254922031E+02 -0.316066129E+01  0.211867155E+01
   H  0.253710064E+02 -0.354389547E+01  0.258376755E+01
  Xx  0.140176213E+01 -0.775292349E+00 -0.245968543E+04
    11
 # iter = 53500  time[fs]=53.50000
   N -0.192078315E+01 -0.443577585E+01  0.250122981E+01
   N  0.180873003E+01 -0.486887686E+01  0.250300159E+01
   C -0.180254269E+01  0.291058746E+01  0.251138621E+01
   C  0.205192629E+01  0.273417266E+01  0.249352160E+01
   C -0.376774334E+01  0.534207417E+00  0.250893626E+01
   C  0.365878361E+01  0.121709821E+01  0.250415949E+01
   H -0.119818883E+02  0.189646395E+02  0.236280096E+01
   H  0.120075846E+02  0.192419402E+02  0.265889371E+01
   H -0.256244074E+02 -0.318132067E+01  0.211653396E+01
   H  0.255022438E+02 -0.356654480E+01  0.258416820E+01
  Xx  0.140368190E+01 -0.776206109E+00 -0.247132714E+04
    11
 # iter = 53750  time[fs]=53.75000
   N -0.192516622E+01 -0.445349441E+01  0.250147468E+01
   N  0.181306659E+01 -0.488852837E+01  0.250287032E+01
   C -0.180872219E+01  0.291547002E+01  0.251136682E+01
   C  0.206307233E+01  0.273491977E+01  0.249354187E+01
   C -0.377839778E+01  0.538997445E+00  0.250894606E+01
   C  0.366519124E+01  0.122909367E+01  0.250416283E+01
   H -0.120462101E+02  0.190648441E+02  0.236199019E+01
   H  0.120719762E+02  0.193433208E+02  0.265983287E+01
   H -0.257566651E+02 -0.320199781E+01  0.211439526E+01
   H  0.256335345E+02 -0.358921189E+01  0.258456885E+01
  Xx  0.140560168E+01 -0.777119868E+00 -0.248296886E+04
    11
 # iter = 54000  time[fs]=54.00000
   N -0.192959273E+01 -0.447128572E+01  0.250172018E+01
   N  0.181734940E+01 -0.490820882E+01  0.250273480E+01
   C -0.181490112E+01  0.292032867E+01  0.251134992E+01
   C  0.207430368E+01  0.273557981E+01  0.249354420E+01
   C -0.378904566E+01  0.543812418E+00  0.250894051E+01
   C  0.367150338E+01  0.124118348E+01  0.250418060E+01
   H -0.121105682E+02  0.191651020E+02  0.236117942E+01
   H  0.121364037E+02  0.194447546E+02  0.266077315E+01
   H -0.258889760E+02 -0.322269271E+01  0.211225545E+01
   H  0.257648782E+02 -0.361189675E+01  0.258496950E+01
  Xx  0.140752146E+01 -0.778033628E+00 -0.249461057E+04
    11
 # iter = 54250  time[fs]=54.25000
   N -0.193406470E+01 -0.448912997E+01  0.250195871E+01
   N  0.182158246E+01 -0.492794692E+01  0.250259679E+01
   C -0.182111607E+01  0.292518494E+01  0.251132547E+01
   C  0.208564873E+01  0.273613936E+01  0.249358543E+01
   C -0.379968557E+01  0.548636118E+00  0.250895265E+01
   C  0.367775506E+01  0.125336288E+01  0.250416304E+01
   H -0.121749618E+02  0.192654132E+02  0.236036865E+01
   H  0.122008667E+02  0.195462417E+02  0.266171435E+01
   H -0.260213402E+02 -0.324340537E+01  0.211011452E+01
   H  0.258962686E+02 -0.363459937E+01  0.258537014E+01
  Xx  0.140944124E+01 -0.778947387E+00 -0.250625229E+04
    11
 # iter = 54500  time[fs]=54.50000
   N -0.193858710E+01 -0.450700270E+01  0.250219904E+01
   N  0.182575569E+01 -0.494775006E+01  0.250245590E+01
   C -0.182734264E+01  0.293000432E+01  0.251129257E+01
   C  0.209707122E+01  0.273659873E+01  0.249363280E+01
   C -0.381031874E+01  0.553454127E+00  0.250896616E+01
   C  0.368391911E+01  0.126563424E+01  0.250413798E+01
   H -0.122393910E+02  0.193657777E+02  0.235955788E+01
   H  0.122653652E+02  0.196477821E+02  0.266265616E+01
   H -0.261537525E+02 -0.326413544E+01  0.210797249E+01
   H  0.260277034E+02 -0.365731976E+01  0.258577079E+01
  Xx  0.141136102E+01 -0.779861147E+00 -0.251789401E+04
    11
 # iter = 54750  time[fs]=54.75000
   N -0.194315655E+01 -0.452487762E+01  0.250243515E+01
   N  0.182986547E+01 -0.496761370E+01  0.250231214E+01
   C -0.183358945E+01  0.293482132E+01  0.251125998E+01
   C  0.210860007E+01  0.273694575E+01  0.249367908E+01
   C -0.382094101E+01  0.558296323E+00  0.250896867E+01
   C  0.369001232E+01  0.127799115E+01  0.250410218E+01
   H -0.123038556E+02  0.194661954E+02  0.235874712E+01
   H  0.123298993E+02  0.197493758E+02  0.266359845E+01
   H -0.262862092E+02 -0.328488219E+01  0.210582935E+01
   H  0.261591826E+02 -0.368005790E+01  0.258617144E+01
  Xx  0.141328079E+01 -0.780774906E+00 -0.252953572E+04
    11
 # iter = 55000  time[fs]=55.00000
   N -0.194776994E+01 -0.454273040E+01  0.250267114E+01
   N  0.183392000E+01 -0.498752513E+01  0.250216748E+01
   C -0.183987380E+01  0.293961270E+01  0.251123051E+01
   C  0.212023898E+01  0.273722933E+01  0.249373600E+01
   C -0.383153819E+01  0.563135196E+00  0.250897884E+01
   C  0.369601717E+01  0.129042618E+01  0.250406999E+01
   H -0.123683559E+02  0.195666665E+02  0.235793635E+01
   H  0.123944688E+02  0.198510228E+02  0.266454144E+01
   H -0.264187103E+02 -0.330564560E+01  0.210368510E+01
   H  0.262907062E+02 -0.370281321E+01  0.258657209E+01
  Xx  0.141520057E+01 -0.781688666E+00 -0.254117744E+04
    11
 # iter = 55250  time[fs]=55.25000
   N -0.195243114E+01 -0.456054085E+01  0.250290360E+01
   N  0.183792351E+01 -0.500745852E+01  0.250202129E+01
   C -0.184616116E+01  0.294438959E+01  0.251119396E+01
   C  0.213198835E+01  0.273739378E+01  0.249375797E+01
   C -0.384212965E+01  0.567987401E+00  0.250898336E+01
   C  0.370193424E+01  0.130293213E+01  0.250406508E+01
   H -0.124328916E+02  0.196671908E+02  0.235712558E+01
   H  0.124590740E+02  0.199527231E+02  0.266548502E+01
   H -0.265512559E+02 -0.332642565E+01  0.210153973E+01
   H  0.264222742E+02 -0.372558517E+01  0.258697274E+01
  Xx  0.141712035E+01 -0.782602426E+00 -0.255281915E+04
    11
 # iter = 55500  time[fs]=55.50000
   N -0.195713270E+01 -0.457829908E+01  0.250313221E+01
   N  0.184186960E+01 -0.502739562E+01  0.250187220E+01
   C -0.185248769E+01  0.294915736E+01  0.251116463E+01
   C  0.214384337E+01  0.273749602E+01  0.249379544E+01
   C -0.385270658E+01  0.572853233E+00  0.250897618E+01
   C  0.370775356E+01  0.131550881E+01  0.250404685E+01
   H -0.124974629E+02  0.197677684E+02  0.235631481E+01
   H  0.125237146E+02  0.200544767E+02  0.266642971E+01
   H -0.266838458E+02 -0.334722236E+01  0.209939326E+01
   H  0.265538867E+02 -0.374837379E+01  0.258737339E+01
  Xx  0.141904013E+01 -0.783516185E+00 -0.256446087E+04
    11
 # iter = 55750  time[fs]=55.75000
   N -0.196187543E+01 -0.459601266E+01  0.250336362E+01
   N  0.184576031E+01 -0.504730846E+01  0.250171864E+01
   C -0.185882658E+01  0.295389261E+01  0.251114308E+01
   C  0.215581622E+01  0.273749106E+01  0.249382274E+01
   C -0.386326206E+01  0.577709843E+00  0.250897174E+01
   C  0.371350376E+01  0.132816176E+01  0.250403536E+01
   H -0.125620697E+02  0.198683994E+02  0.235550404E+01
   H  0.125883908E+02  0.201562835E+02  0.266737551E+01
   H -0.268164801E+02 -0.336803572E+01  0.209724567E+01
   H  0.266855435E+02 -0.377117906E+01  0.258777403E+01
  Xx  0.142095991E+01 -0.784429945E+00 -0.257610258E+04
    11
 # iter = 56000  time[fs]=56.00000
   N -0.196665236E+01 -0.461369695E+01  0.250358669E+01
   N  0.184961709E+01 -0.506718592E+01  0.250156445E+01
   C -0.186520148E+01  0.295861606E+01  0.251111803E+01
   C  0.216787964E+01  0.273739974E+01  0.249388100E+01
   C -0.387382440E+01  0.582582533E+00  0.250896045E+01
   C  0.371915583E+01  0.134089568E+01  0.250400383E+01
   H -0.126267120E+02  0.199690836E+02  0.235469327E+01
   H  0.126531024E+02  0.202581429E+02  0.266832242E+01
   H -0.269491589E+02 -0.338886574E+01  0.209509698E+01
   H  0.268172448E+02 -0.379400098E+01  0.258817468E+01
  Xx  0.142287969E+01 -0.785343704E+00 -0.258774430E+04
    11
 # iter = 56250  time[fs]=56.25000
   N -0.197145622E+01 -0.463137569E+01  0.250381006E+01
   N  0.185343424E+01 -0.508701802E+01  0.250140985E+01
   C -0.187159150E+01  0.296332899E+01  0.251110186E+01
   C  0.218006815E+01  0.273720181E+01  0.249394940E+01
   C -0.388436076E+01  0.587467601E+00  0.250894267E+01
   C  0.372473730E+01  0.135370951E+01  0.250395082E+01
   H -0.126913898E+02  0.200698211E+02  0.235388250E+01
   H  0.127178497E+02  0.203600483E+02  0.266927044E+01
   H -0.270818820E+02 -0.340971197E+01  0.209294718E+01
   H  0.269489904E+02 -0.381683955E+01  0.258857533E+01
  Xx  0.142479946E+01 -0.786257464E+00 -0.259938601E+04
    11
 # iter = 56500  time[fs]=56.50000
   N -0.197629223E+01 -0.464907372E+01  0.250403183E+01
   N  0.185722157E+01 -0.510682097E+01  0.250125433E+01
   C -0.187800351E+01  0.296801558E+01  0.251108605E+01
   C  0.219234930E+01  0.273691676E+01  0.249400701E+01
   C -0.389489502E+01  0.592343127E+00  0.250892449E+01
   C  0.373022953E+01  0.136662173E+01  0.250393228E+01
   H -0.127561032E+02  0.201706118E+02  0.235307173E+01
   H  0.127826324E+02  0.204619980E+02  0.267021952E+01
   H -0.272146496E+02 -0.343057375E+01  0.209079626E+01
   H  0.270807805E+02 -0.383969453E+01  0.258897598E+01
  Xx  0.142671924E+01 -0.787171223E+00 -0.261102773E+04
    11
 # iter = 56750  time[fs]=56.75000
   N -0.198115021E+01 -0.466682595E+01  0.250424476E+01
   N  0.186098416E+01 -0.512661574E+01  0.250109769E+01
   C -0.188445429E+01  0.297269720E+01  0.251106685E+01
   C  0.220477728E+01  0.273652818E+01  0.249405811E+01
   C -0.390543427E+01  0.597247426E+00  0.250890766E+01
   C  0.373562428E+01  0.137959291E+01  0.250390451E+01
   H -0.128208521E+02  0.202714524E+02  0.235226096E+01
   H  0.128474507E+02  0.205639922E+02  0.267116910E+01
   H -0.273474616E+02 -0.345145107E+01  0.208864424E+01
   H  0.272126150E+02 -0.386256511E+01  0.258937663E+01
  Xx  0.142863902E+01 -0.788084983E+00 -0.262266944E+04
    11
 # iter = 57000  time[fs]=57.00000
   N -0.198602676E+01 -0.468464654E+01  0.250445872E+01
   N  0.186472541E+01 -0.514642042E+01  0.250093903E+01
   C -0.189092171E+01  0.297736026E+01  0.251105623E+01
   C  0.221732708E+01  0.273607208E+01  0.249409274E+01
   C -0.391595644E+01  0.602144880E+00  0.250888494E+01
   C  0.374090570E+01  0.139265926E+01  0.250390200E+01
   H -0.128856366E+02  0.203723390E+02  0.235145019E+01
   H  0.129123021E+02  0.206660307E+02  0.267211919E+01
   H -0.274803180E+02 -0.347234394E+01  0.208649110E+01
   H  0.273444938E+02 -0.388545122E+01  0.258977727E+01
  Xx  0.143055880E+01 -0.788998742E+00 -0.263431116E+04
    11
 # iter = 57250  time[fs]=57.25000
   N -0.199092012E+01 -0.470253376E+01  0.250466359E+01
   N  0.186845583E+01 -0.516625561E+01  0.250078111E+01
   C -0.189742068E+01  0.298199966E+01  0.251103323E+01
   C  0.223001643E+01  0.273550568E+01  0.249415217E+01
   C -0.392648619E+01  0.607040378E+00  0.250886464E+01
   C  0.374609639E+01  0.140579963E+01  0.250388336E+01
   H -0.129504548E+02  0.204732701E+02  0.235063942E+01
   H  0.129771847E+02  0.207681137E+02  0.267306928E+01
   H -0.276132188E+02 -0.349325235E+01  0.208433686E+01
   H  0.274764171E+02 -0.390835289E+01  0.259017792E+01
  Xx  0.143247858E+01 -0.789912502E+00 -0.264595288E+04
    11
 # iter = 57500  time[fs]=57.50000
   N -0.199582291E+01 -0.472049600E+01  0.250486391E+01
   N  0.187217092E+01 -0.518613419E+01  0.250062080E+01
   C -0.190394756E+01  0.298664232E+01  0.251101064E+01
   C  0.224281017E+01  0.273485011E+01  0.249422756E+01
   C -0.393702667E+01  0.611962882E+00  0.250885252E+01
   C  0.375117222E+01  0.141904435E+01  0.250384065E+01
   H -0.130153042E+02  0.205742455E+02  0.234982865E+01
   H  0.130420983E+02  0.208702411E+02  0.267401937E+01
   H -0.277461640E+02 -0.351417630E+01  0.208218150E+01
   H  0.276083848E+02 -0.393127009E+01  0.259057857E+01
  Xx  0.143439836E+01 -0.790826261E+00 -0.265759459E+04
    11
 # iter = 57750  time[fs]=57.75000
   N -0.200073239E+01 -0.473851268E+01  0.250505933E+01
   N  0.187588849E+01 -0.520607173E+01  0.250046284E+01
   C -0.191049890E+01  0.299125618E+01  0.251098985E+01
   C  0.225574400E+01  0.273407767E+01  0.249429076E+01
   C -0.394754363E+01  0.616890826E+00  0.250883251E+01
   C  0.375617123E+01  0.143239539E+01  0.250380489E+01
   H -0.130801847E+02  0.206752653E+02  0.234901788E+01
   H  0.131070430E+02  0.209724129E+02  0.267496946E+01
   H -0.278791536E+02 -0.353511580E+01  0.208002503E+01
   H  0.277403969E+02 -0.395420284E+01  0.259097922E+01
  Xx  0.143631813E+01 -0.791740021E+00 -0.266923631E+04
    11
 # iter = 58000  time[fs]=58.00000
   N -0.200564104E+01 -0.475655458E+01  0.250524436E+01
   N  0.187961227E+01 -0.522605631E+01  0.250030310E+01
   C -0.191708650E+01  0.299585957E+01  0.251095398E+01
   C  0.226878209E+01  0.273321089E+01  0.249437285E+01
   C -0.395808233E+01  0.621812125E+00  0.250881975E+01
   C  0.376104444E+01  0.144585056E+01  0.250376484E+01
   H -0.131450962E+02  0.207763296E+02  0.234820711E+01
   H  0.131720188E+02  0.210746291E+02  0.267591955E+01
   H -0.280121876E+02 -0.355607084E+01  0.207786746E+01
   H  0.278724535E+02 -0.397715113E+01  0.259137987E+01
  Xx  0.143823791E+01 -0.792653781E+00 -0.268087802E+04
    11
 # iter = 58250  time[fs]=58.25000
   N -0.201054284E+01 -0.477459811E+01  0.250542252E+01
   N  0.188333952E+01 -0.524606961E+01  0.250014029E+01
   C -0.192370798E+01  0.300044667E+01  0.251092137E+01
   C  0.228195631E+01  0.273223818E+01  0.249442938E+01
   C -0.396862062E+01  0.626764241E+00  0.250881689E+01
   C  0.376582362E+01  0.145938938E+01  0.250374558E+01
   H -0.132100388E+02  0.208774382E+02  0.234739634E+01
   H  0.132370257E+02  0.211768897E+02  0.267686982E+01
   H -0.281452660E+02 -0.357704088E+01  0.207570877E+01
   H  0.280045544E+02 -0.400011492E+01  0.259178051E+01
  Xx  0.144015769E+01 -0.793567540E+00 -0.269251974E+04
    11
 # iter = 58500  time[fs]=58.50000
   N -0.201543824E+01 -0.479261652E+01  0.250559311E+01
   N  0.188708866E+01 -0.526609595E+01  0.249997865E+01
   C -0.193034923E+01  0.300501899E+01  0.251088703E+01
   C  0.229525360E+01  0.273118479E+01  0.249447571E+01
   C -0.397914208E+01  0.631713020E+00  0.250880076E+01
   C  0.377047264E+01  0.147303451E+01  0.250372641E+01
   H -0.132750126E+02  0.209785913E+02  0.234658557E+01
   H  0.133020637E+02  0.212791947E+02  0.267782030E+01
   H -0.282783889E+02 -0.359802536E+01  0.207354898E+01
   H  0.281366997E+02 -0.402309396E+01  0.259218116E+01
  Xx  0.144207747E+01 -0.794481300E+00 -0.270416145E+04
    11
 # iter = 58750  time[fs]=58.75000
   N -0.202031475E+01 -0.481059080E+01  0.250575454E+01
   N  0.189086705E+01 -0.528611381E+01  0.249981620E+01
   C -0.193703116E+01  0.300957024E+01  0.251083711E+01
   C  0.230868389E+01  0.273003711E+01  0.249455385E+01
   C -0.398968123E+01  0.636672941E+00  0.250879454E+01
   C  0.377501511E+01  0.148675167E+01  0.250368419E+01
   H -0.133400174E+02  0.210797888E+02  0.234577480E+01
   H  0.133671327E+02  0.213815442E+02  0.267877127E+01
   H -0.284115561E+02 -0.361902426E+01  0.207138807E+01
   H  0.282688895E+02 -0.404608854E+01  0.259258181E+01
  Xx  0.144399725E+01 -0.795395059E+00 -0.271580317E+04
    11
 # iter = 59000  time[fs]=59.00000
   N -0.202517076E+01 -0.482851011E+01  0.250590788E+01
   N  0.189467764E+01 -0.530611060E+01  0.249965544E+01
   C -0.194372851E+01  0.301411140E+01  0.251080105E+01
   C  0.232221096E+01  0.272877815E+01  0.249463195E+01
   C -0.400020909E+01  0.641662068E+00  0.250879358E+01
   C  0.377944948E+01  0.150057611E+01  0.250364076E+01
   H -0.134050533E+02  0.211810307E+02  0.234496403E+01
   H  0.134322329E+02  0.214839380E+02  0.267972284E+01
   H -0.285447678E+02 -0.364003760E+01  0.206922605E+01
   H  0.284011226E+02 -0.406909867E+01  0.259298246E+01
  Xx  0.144591702E+01 -0.796308819E+00 -0.272744488E+04
    11
 # iter = 59250  time[fs]=59.25000
   N -0.203000447E+01 -0.484638236E+01  0.250604863E+01
   N  0.189852417E+01 -0.532607211E+01  0.249949555E+01
   C -0.195046400E+01  0.301862898E+01  0.251075530E+01
   C  0.233585696E+01  0.272742018E+01  0.249471170E+01
   C -0.401072503E+01  0.646647047E+00  0.250877739E+01
   C  0.378378285E+01  0.151451219E+01  0.250358743E+01
   H -0.134701203E+02  0.212823170E+02  0.234415326E+01
   H  0.134973641E+02  0.215863763E+02  0.268067479E+01
   H -0.286780238E+02 -0.366106538E+01  0.206706297E+01
   H  0.285333926E+02 -0.409212434E+01  0.259338311E+01
  Xx  0.144783680E+01 -0.797222578E+00 -0.273908660E+04
    11
 # iter = 59500  time[fs]=59.50000
   N -0.203481147E+01 -0.486422052E+01  0.250618505E+01
   N  0.190241514E+01 -0.534600484E+01  0.249933278E+01
   C -0.195722648E+01  0.302313191E+01  0.251070575E+01
   C  0.234961948E+01  0.272595172E+01  0.249479347E+01
   C -0.402125079E+01  0.651650021E+00  0.250877454E+01
   C  0.378800601E+01  0.152852159E+01  0.250352908E+01
   H -0.135352183E+02  0.213836477E+02  0.234334249E+01
   H  0.135625264E+02  0.216888589E+02  0.268162725E+01
   H -0.288113243E+02 -0.368210758E+01  0.206489888E+01
   H  0.286656980E+02 -0.411516454E+01  0.259378376E+01
  Xx  0.144975658E+01 -0.798136338E+00 -0.275072831E+04
    11
 # iter = 59750  time[fs]=59.75000
   N -0.203958928E+01 -0.488205308E+01  0.250631398E+01
   N  0.190635522E+01 -0.536591290E+01  0.249917156E+01
   C -0.196401278E+01  0.302761071E+01  0.251066551E+01
   C  0.236350397E+01  0.272440061E+01  0.249484599E+01
   C -0.403176099E+01  0.656677911E+00  0.250876456E+01
   C  0.379210517E+01  0.154262904E+01  0.250351779E+01
   H -0.136003475E+02  0.214850228E+02  0.234253172E+01
   H  0.136277198E+02  0.217913860E+02  0.268258024E+01
   H -0.289446692E+02 -0.370316422E+01  0.206273368E+01
   H  0.287980390E+02 -0.413821806E+01  0.259418440E+01
  Xx  0.145167636E+01 -0.799050097E+00 -0.276237003E+04
    11
 # iter = 60000  time[fs]=60.00000
   N -0.204433330E+01 -0.489990422E+01  0.250643217E+01
   N  0.191034977E+01 -0.538581706E+01  0.249901143E+01
   C -0.197083319E+01  0.303208219E+01  0.251061958E+01
   C  0.237751890E+01  0.272276482E+01  0.249491224E+01
   C -0.404225791E+01  0.661708692E+00  0.250873826E+01
   C  0.379609597E+01  0.155679698E+01  0.250347014E+01
   H -0.136655077E+02  0.215864423E+02  0.234172095E+01
   H  0.136929443E+02  0.218939575E+02  0.268353354E+01
   H -0.290780585E+02 -0.372423529E+01  0.206056737E+01
   H  0.289304155E+02 -0.416128491E+01  0.259458505E+01
  Xx  0.145359614E+01 -0.799963857E+00 -0.277401174E+04
