    11
 # iter =     0  time[fs]= 0.00000
   N -0.668466338E+00 -0.116463086E+01  0.250000000E+01
   N  0.668466338E+00 -0.116463086E+01  0.250000000E+01
   C -0.692277627E+00  0.124916000E+01  0.250000000E+01
   C  0.692277627E+00  0.124916000E+01  0.250000000E+01
   C -0.132315667E+01  0.433975300E-03  0.250000000E+01
   C  0.132315667E+01  0.433975300E-03  0.250000000E+01
   H -0.127180384E+01  0.216832769E+01  0.250000000E+01
   H  0.127180384E+01  0.216832769E+01  0.250000000E+01
   H -0.240769469E+01 -0.832907948E-01  0.250000000E+01
   H  0.240769469E+01 -0.832907948E-01  0.250000000E+01
  Xx  0.692277627E+00  0.200000000E+02  0.250000000E+01
    11
 # iter =   250  time[fs]= 0.25000
   N -0.668478376E+00 -0.116465207E+01  0.250000000E+01
   N  0.668478068E+00 -0.116465215E+01  0.250000000E+01
   C -0.692271801E+00  0.124913393E+01  0.250000000E+01
   C  0.692270976E+00  0.124913358E+01  0.250000000E+01
   C -0.132313039E+01  0.423235783E-03  0.250000000E+01
   C  0.132312983E+01  0.423059298E-03  0.250000000E+01
   H -0.127181182E+01  0.216830111E+01  0.250000000E+01
   H  0.127180792E+01  0.216829854E+01  0.250000000E+01
   H -0.240778562E+01 -0.833057036E-01  0.250000000E+01
   H  0.240778368E+01 -0.833069506E-01  0.250000000E+01
  Xx  0.692282284E+00  0.835700176E+01  0.250000000E+01
    11
 # iter =   500  time[fs]= 0.50000
   N -0.668742543E+00 -0.116472285E+01  0.250000000E+01
   N  0.669005212E+00 -0.116498364E+01  0.250000000E+01
   C -0.692517010E+00  0.124907473E+01  0.250000000E+01
   C -0.322265307E+00 -0.353168750E+01  0.250000000E+01
   C -0.132319397E+01  0.362780194E-03  0.250000000E+01
   C  0.132354856E+01 -0.554124315E-03  0.250000000E+01
   H -0.127252914E+01  0.216881872E+01  0.250000000E+01
   H  0.127586817E+01  0.216872850E+01  0.250000000E+01
   H -0.240849461E+01 -0.833362473E-01  0.250000000E+01
   H  0.240899815E+01 -0.836384601E-01  0.250000000E+01
  Xx  0.139554121E+01  0.452595115E+00  0.250000000E+01
    11
 # iter =   750  time[fs]= 0.75000
   N -0.670653207E+00 -0.116564705E+01  0.249999974E+01
   N  0.671814461E+00 -0.116737988E+01  0.249999971E+01
   C -0.692920261E+00  0.124947728E+01  0.249999980E+01
   C -0.293064778E+01 -0.158121111E+02  0.249999933E+01
   C -0.132397414E+01  0.654538369E-03  0.249999973E+01
   C  0.130278994E+01 -0.248039171E-01  0.249999980E+01
   H -0.127630124E+01  0.217550180E+01  0.249999869E+01
   H  0.128581139E+01  0.217570472E+01  0.249999860E+01
   H -0.241550512E+01 -0.838178953E-01  0.249999849E+01
   H  0.244947052E+01 -0.659944879E-01  0.249999910E+01
  Xx  0.322779919E+01 -0.156502910E+01  0.249999947E+01
    11
 # iter =  1000  time[fs]= 1.00000
   N -0.673911308E+00 -0.116847444E+01  0.249999887E+01
   N  0.675897815E+00 -0.117155572E+01  0.249999863E+01
   C -0.692918746E+00  0.125076306E+01  0.249999895E+01
   C -0.553902523E+01 -0.280925234E+02  0.249999712E+01
   C -0.132588750E+01  0.177335116E-02  0.249999853E+01
   C  0.127784181E+01 -0.483015172E-01  0.249999929E+01
   H -0.128418615E+01  0.219052949E+01  0.249999536E+01
   H  0.129800623E+01  0.218704971E+01  0.249999412E+01
   H -0.243378481E+01 -0.849907684E-01  0.249999195E+01
   H  0.251127405E+01 -0.259179220E-01  0.249999554E+01
  Xx  0.506864985E+01 -0.358484835E+01  0.249999752E+01
    11
 # iter =  1250  time[fs]= 1.25000
   N -0.678724331E+00 -0.117305114E+01  0.249999739E+01
   N  0.681462643E+00 -0.117737776E+01  0.249999719E+01
   C -0.692480342E+00  0.125310036E+01  0.249999743E+01
   C -0.814740941E+01 -0.403729622E+02  0.249999482E+01
   C -0.132900131E+01  0.345077710E-02  0.249999727E+01
   C  0.125383724E+01 -0.703755480E-01  0.249999874E+01
   H -0.129579821E+01  0.221287065E+01  0.249999130E+01
   H  0.131197309E+01  0.220205298E+01  0.249998731E+01
   H -0.246295333E+01 -0.868716982E-01  0.249998275E+01
   H  0.258150066E+01  0.149694996E-01  0.249998922E+01
  Xx  0.691077232E+01 -0.560552385E+01  0.249999487E+01
    11
 # iter =  1500  time[fs]= 1.50000
   N -0.685059047E+00 -0.117911910E+01  0.249999582E+01
   N  0.687862844E+00 -0.118538037E+01  0.249999495E+01
   C -0.691619991E+00  0.125623149E+01  0.249999542E+01
   C -0.107557981E+02 -0.526534185E+02  0.249999252E+01
   C -0.133301055E+01  0.563992888E-02  0.249999547E+01
   C  0.123116607E+01 -0.903698294E-01  0.249999784E+01
   H -0.131032970E+01  0.224196425E+01  0.249998662E+01
   H  0.132729744E+01  0.222059633E+01  0.249998091E+01
   H -0.250120158E+01 -0.894831622E-01  0.249997258E+01
   H  0.265973682E+01  0.571793981E-01  0.249997986E+01
  Xx  0.875349476E+01 -0.762669017E+01  0.249999150E+01
    11
 # iter =  1750  time[fs]= 1.75000
   N -0.692589587E+00 -0.118690291E+01  0.249999399E+01
   N  0.695257457E+00 -0.119557194E+01  0.249999215E+01
   C -0.690434245E+00  0.126022794E+01  0.249999281E+01
   C -0.133641912E+02 -0.649338804E+02  0.249999022E+01
   C -0.133812550E+01  0.860756884E-02  0.249999303E+01
   C  0.120975804E+01 -0.108320601E+00  0.249999673E+01
   H -0.132788867E+01  0.227704477E+01  0.249998288E+01
   H  0.134470104E+01  0.224198799E+01  0.249997324E+01
   H -0.254887271E+01 -0.927779753E-01  0.249995991E+01
   H  0.274511900E+01  0.100413613E+00  0.249997009E+01
  Xx  0.105965377E+02 -0.964817644E+01  0.249998731E+01
    11
 # iter =  2000  time[fs]= 2.00000
   N -0.701166237E+00 -0.119638763E+01  0.249999229E+01
   N  0.703584058E+00 -0.120794878E+01  0.249998945E+01
   C -0.688925677E+00  0.126512464E+01  0.249998940E+01
   C -0.159725868E+02 -0.772143423E+02  0.249998792E+01
   C -0.134418623E+01  0.122478883E-01  0.249999121E+01
   C  0.118972753E+01 -0.124190692E+00  0.249999485E+01
   H -0.134800399E+01  0.231832320E+01  0.249997861E+01
   H  0.136386143E+01  0.226600183E+01  0.249996464E+01
   H -0.260679485E+01 -0.967893216E-01  0.249994619E+01
   H  0.283570688E+01  0.144736341E+00  0.249995942E+01
  Xx  0.124397812E+02 -0.116698439E+02  0.249998267E+01
    11
 # iter =  2250  time[fs]= 2.25000
   N -0.710855582E+00 -0.120727685E+01  0.249999038E+01
   N  0.712564625E+00 -0.122288798E+01  0.249998637E+01
   C -0.687123747E+00  0.127072259E+01  0.249998552E+01
   C -0.185809825E+02 -0.894948042E+02  0.249998562E+01
   C -0.135119122E+01  0.165324914E-01  0.249998978E+01
   C  0.117083427E+01 -0.137515531E+00  0.249999372E+01
   H -0.137065349E+01  0.236494191E+01  0.249997230E+01
   H  0.138447715E+01  0.229302978E+01  0.249995433E+01
   H -0.267235273E+01 -0.100884978E+00  0.249993198E+01
   H  0.293223516E+01  0.189805642E+00  0.249994868E+01
  Xx  0.142831698E+02 -0.136916395E+02  0.249997802E+01
    11
 # iter =  2500  time[fs]= 2.50000
   N -0.721740706E+00 -0.121943155E+01  0.249998889E+01
   N  0.722356951E+00 -0.124043727E+01  0.249998329E+01
   C -0.685097376E+00  0.127702773E+01  0.249998219E+01
   C -0.211893781E+02 -0.101775266E+03  0.249998332E+01
   C -0.135902465E+01  0.211992981E-01  0.249998808E+01
   C  0.115332682E+01 -0.148380501E+00  0.249999241E+01
   H -0.139584356E+01  0.241687486E+01  0.249996030E+01
   H  0.140690760E+01  0.232271874E+01  0.249994160E+01
   H -0.274515966E+01 -0.105392034E+00  0.249991732E+01
   H  0.303323279E+01  0.235356550E+00  0.249993795E+01
  Xx  0.161266645E+02 -0.157135317E+02  0.249997337E+01
    11
 # iter =  2750  time[fs]= 2.75000
   N -0.733452710E+00 -0.123306215E+01  0.249998711E+01
   N  0.732925983E+00 -0.126006300E+01  0.249998058E+01
   C -0.682874424E+00  0.128432377E+01  0.249997920E+01
   C -0.237977738E+02 -0.114055728E+03  0.249998102E+01
   C -0.136787257E+01  0.265192061E-01  0.249998577E+01
   C  0.113704818E+01 -0.157316194E+00  0.249999119E+01
   H -0.142305731E+01  0.247325023E+01  0.249994745E+01
   H  0.143086484E+01  0.235523974E+01  0.249992787E+01
   H -0.282488706E+01 -0.110280236E+00  0.249989828E+01
   H  0.313791995E+01  0.281254093E+00  0.249992659E+01
  Xx  0.179702407E+02 -0.177354990E+02  0.249996872E+01
    11
 # iter =  3000  time[fs]= 3.00000
   N -0.745975494E+00 -0.124804407E+01  0.249998507E+01
   N  0.744025010E+00 -0.128191051E+01  0.249997767E+01
   C -0.680420102E+00  0.129272179E+01  0.249997691E+01
   C -0.264061694E+02 -0.126336190E+03  0.249997872E+01
   C -0.137767647E+01  0.320573976E-01  0.249998362E+01
   C  0.112190083E+01 -0.164138574E+00  0.249998976E+01
   H -0.145236007E+01  0.253367601E+01  0.249993241E+01
   H  0.145625440E+01  0.239062934E+01  0.249991385E+01
   H -0.291055086E+01 -0.115624736E+00  0.249987417E+01
   H  0.324661220E+01  0.327658286E+00  0.249991529E+01
  Xx  0.198138815E+02 -0.197575268E+02  0.249996407E+01
    11
 # iter =  3250  time[fs]= 3.25000
   N -0.759247765E+00 -0.126417263E+01  0.249998355E+01
   N  0.755532963E+00 -0.130608069E+01  0.249997466E+01
   C -0.677691379E+00  0.130187343E+01  0.249997458E+01
   C -0.290145651E+02 -0.138616652E+03  0.249997642E+01
   C -0.138829320E+01  0.380277325E-01  0.249998138E+01
   C  0.110797833E+01 -0.168526209E+00  0.249998888E+01
   H -0.148363687E+01  0.259827971E+01  0.249991520E+01
   H  0.148304401E+01  0.242846922E+01  0.249990100E+01
   H -0.300201663E+01 -0.121675491E+00  0.249985043E+01
   H  0.335861549E+01  0.374441123E+00  0.249990153E+01
  Xx  0.216575748E+02 -0.217796042E+02  0.249995942E+01
    11
 # iter =  3500  time[fs]= 3.50000
   N -0.773210729E+00 -0.128127816E+01  0.249998133E+01
   N  0.767598478E+00 -0.133261181E+01  0.249997166E+01
   C -0.674811612E+00  0.131181661E+01  0.249997318E+01
   C -0.316229607E+02 -0.150897114E+03  0.249997412E+01
   C -0.139973932E+01  0.444193133E-01  0.249997921E+01
   C  0.109506506E+01 -0.170572777E+00  0.249998710E+01
   H -0.151661705E+01  0.266683485E+01  0.249989352E+01
   H  0.151138078E+01  0.246874941E+01  0.249988880E+01
   H -0.309924833E+01 -0.128350870E+00  0.249982622E+01
   H  0.347366098E+01  0.421564739E+00  0.249988395E+01
  Xx  0.235013116E+02 -0.238017230E+02  0.249995477E+01
    11
 # iter =  3750  time[fs]= 3.75000
   N -0.787675728E+00 -0.129936183E+01  0.249997918E+01
   N  0.780123144E+00 -0.136123097E+01  0.249996835E+01
   C -0.671622886E+00  0.132246708E+01  0.249997184E+01
   C -0.342313564E+02 -0.163177576E+03  0.249997182E+01
   C -0.141206846E+01  0.512708993E-01  0.249997720E+01
   C  0.108307740E+01 -0.170581926E+00  0.249998538E+01
   H -0.155108212E+01  0.273917527E+01  0.249987192E+01
   H  0.154117314E+01  0.251135791E+01  0.249987473E+01
   H -0.320229247E+01 -0.135859025E+00  0.249980159E+01
   H  0.359125029E+01  0.468979634E+00  0.249986452E+01
  Xx  0.253450847E+02 -0.258238771E+02  0.249995012E+01
    11
 # iter =  4000  time[fs]= 4.00000
   N -0.802550859E+00 -0.131842574E+01  0.249997773E+01
   N  0.793077603E+00 -0.139164089E+01  0.249996463E+01
   C -0.668100102E+00  0.133399124E+01  0.249997055E+01
   C -0.368397520E+02 -0.175458037E+03  0.249996952E+01
   C -0.142530773E+01  0.583899963E-01  0.249997473E+01
   C  0.107192654E+01 -0.168653051E+00  0.249998459E+01
   H -0.158719054E+01  0.281456842E+01  0.249984573E+01
   H  0.157238318E+01  0.255643389E+01  0.249985666E+01
   H -0.331006970E+01 -0.143863163E+00  0.249977739E+01
   H  0.371118564E+01  0.516617189E+00  0.249984431E+01
  Xx  0.271888889E+02 -0.278460605E+02  0.249994547E+01
    11
 # iter =  4250  time[fs]= 4.25000
   N -0.817852741E+00 -0.133834660E+01  0.249997604E+01
   N  0.806258451E+00 -0.142393447E+01  0.249996110E+01
   C -0.664163370E+00  0.134652727E+01  0.249996899E+01
   C -0.394481476E+02 -0.187738499E+03  0.249996722E+01
   C -0.143953881E+01  0.653591421E-01  0.249997234E+01
   C  0.106161017E+01 -0.164903234E+00  0.249998321E+01
   H -0.162493308E+01  0.289324526E+01  0.249981765E+01
   H  0.160494165E+01  0.260407894E+01  0.249983460E+01
   H -0.342180378E+01 -0.152511712E+00  0.249974739E+01
   H  0.383358136E+01  0.564440344E+00  0.249982123E+01
  Xx  0.290327198E+02 -0.298682704E+02  0.249994082E+01
    11
 # iter =  4500  time[fs]= 4.50000
   N -0.833687227E+00 -0.135879470E+01  0.249997435E+01
   N  0.819821384E+00 -0.145790048E+01  0.249995811E+01
   C -0.659819226E+00  0.136013830E+01  0.249996769E+01
   C -0.420565433E+02 -0.200018961E+03  0.249996492E+01
   C -0.145462051E+01  0.718877021E-01  0.249997020E+01
   C  0.105211131E+01 -0.159815767E+00  0.249998154E+01
   H -0.166437577E+01  0.297513331E+01  0.249978743E+01
   H  0.163892995E+01  0.265420840E+01  0.249980790E+01
   H -0.353748725E+01 -0.161655289E+00  0.249971495E+01
   H  0.395817527E+01  0.612344477E+00  0.249979803E+01
  Xx  0.308765753E+02 -0.318905042E+02  0.249993617E+01
    11
 # iter =  4750  time[fs]= 4.75000
   N -0.849998351E+00 -0.137992233E+01  0.249997258E+01
   N  0.833886199E+00 -0.149331936E+01  0.249995389E+01
   C -0.655175628E+00  0.137465692E+01  0.249996725E+01
   C -0.446649389E+02 -0.212299423E+03  0.249996262E+01
   C -0.147063284E+01  0.783813612E-01  0.249996825E+01
   C  0.104330950E+01 -0.153452708E+00  0.249998027E+01
   H -0.170548381E+01  0.306041159E+01  0.249975379E+01
   H  0.167443898E+01  0.270659644E+01  0.249977919E+01
   H -0.365652564E+01 -0.171290624E+00  0.249968038E+01
   H  0.408460666E+01  0.660440689E+00  0.249977412E+01
  Xx  0.327204491E+02 -0.339127559E+02  0.249993152E+01
    11
 # iter =  5000  time[fs]= 5.00000
   N -0.866627937E+00 -0.140195303E+01  0.249997055E+01
   N  0.848380000E+00 -0.152990543E+01  0.249995073E+01
   C -0.650265121E+00  0.138975322E+01  0.249996719E+01
   C -0.472733346E+02 -0.224579885E+03  0.249996032E+01
   C -0.148745577E+01  0.852371944E-01  0.249996561E+01
   C  0.103503755E+01 -0.146039298E+00  0.249997932E+01
   H -0.174846056E+01  0.314863926E+01  0.249971757E+01
   H  0.171131845E+01  0.276111264E+01  0.249974940E+01
   H -0.377875973E+01 -0.181174807E+00  0.249964009E+01
   H  0.421279933E+01  0.708651472E+00  0.249975273E+01
  Xx  0.345643407E+02 -0.359350253E+02  0.249992687E+01
    11
 # iter =  5250  time[fs]= 5.25000
   N -0.883574045E+00 -0.142482190E+01  0.249996935E+01
   N  0.863120182E+00 -0.156748829E+01  0.249994679E+01
   C -0.645270201E+00  0.140554622E+01  0.249996744E+01
   C -0.498817302E+02 -0.236860347E+03  0.249995802E+01
   C -0.150499177E+01  0.923137028E-01  0.249996337E+01
   C  0.102742875E+01 -0.137776157E+00  0.249997841E+01
   H -0.179295283E+01  0.323973742E+01  0.249968217E+01
   H  0.174951971E+01  0.281774657E+01  0.249971754E+01
   H -0.390365120E+01 -0.191391223E+00  0.249959792E+01
   H  0.434261827E+01  0.756972133E+00  0.249972916E+01
  Xx  0.364082500E+02 -0.379573125E+02  0.249992222E+01
    11
 # iter =  5500  time[fs]= 5.50000
   N -0.900799675E+00 -0.144847139E+01  0.249996819E+01
   N  0.878342462E+00 -0.160572855E+01  0.249994329E+01
   C -0.640317763E+00  0.142207865E+01  0.249996800E+01
   C -0.524901259E+02 -0.249140809E+03  0.249995572E+01
   C -0.152312839E+01  0.994977794E-01  0.249996040E+01
   C  0.102046953E+01 -0.129095271E+00  0.249997706E+01
   H -0.183880340E+01  0.333331389E+01  0.249964336E+01
   H  0.178909853E+01  0.287631334E+01  0.249968641E+01
   H -0.403138410E+01 -0.201804432E+00  0.249955686E+01
   H  0.447404801E+01  0.805367110E+00  0.249970473E+01
  Xx  0.382521772E+02 -0.399796175E+02  0.249991757E+01
    11
 # iter =  5750  time[fs]= 5.75000
   N -0.918471589E+00 -0.147253248E+01  0.249996655E+01
   N  0.893873735E+00 -0.164491593E+01  0.249994022E+01
   C -0.635231794E+00  0.143923286E+01  0.249996882E+01
   C -0.550985215E+02 -0.261421271E+03  0.249995342E+01
   C -0.154179080E+01  0.106601493E+00  0.249995774E+01
   C  0.101400413E+01 -0.119660107E+00  0.249997573E+01
   H -0.188589757E+01  0.342927302E+01  0.249960102E+01
   H  0.182982016E+01  0.293654921E+01  0.249965045E+01
   H -0.416161108E+01 -0.212559511E+00  0.249951112E+01
   H  0.460703573E+01  0.853908898E+00  0.249967736E+01
  Xx  0.400961220E+02 -0.420019403E+02  0.249991292E+01
    11
 # iter =  6000  time[fs]= 6.00000
   N -0.936577492E+00 -0.149703501E+01  0.249996556E+01
   N  0.909837322E+00 -0.168493324E+01  0.249993621E+01
   C -0.629959879E+00  0.145684136E+01  0.249996953E+01
   C -0.577069172E+02 -0.273701733E+03  0.249995112E+01
   C -0.156099487E+01  0.113608416E+00  0.249995516E+01
   C  0.100795257E+01 -0.109588489E+00  0.249997524E+01
   H -0.193427577E+01  0.352775944E+01  0.249955676E+01
   H  0.187167400E+01  0.299859681E+01  0.249961675E+01
   H -0.429421482E+01 -0.223572222E+00  0.249946190E+01
   H  0.474141376E+01  0.902544019E+00  0.249965081E+01
  Xx  0.419400847E+02 -0.440242808E+02  0.249990827E+01
    11
 # iter =  6250  time[fs]= 6.25000
   N -0.955080868E+00 -0.152189214E+01  0.249996426E+01
   N  0.926233338E+00 -0.172558272E+01  0.249993216E+01
   C -0.624484022E+00  0.147506334E+01  0.249996968E+01
   C -0.603153128E+02 -0.285982194E+03  0.249994882E+01
   C -0.158080184E+01  0.120423544E+00  0.249995292E+01
   C  0.100237871E+01 -0.991225246E-01  0.249997444E+01
   H -0.198393866E+01  0.362856281E+01  0.249950775E+01
   H  0.191458959E+01  0.306220585E+01  0.249958138E+01
   H -0.442901476E+01 -0.234903334E+00  0.249940805E+01
   H  0.487708841E+01  0.951252999E+00  0.249961935E+01
  Xx  0.437840651E+02 -0.460466390E+02  0.249990362E+01
    11
 # iter =  6500  time[fs]= 6.50000
   N -0.974033774E+00 -0.154715249E+01  0.249996348E+01
   N  0.943128465E+00 -0.176672894E+01  0.249992848E+01
   C -0.618855895E+00  0.149387108E+01  0.249997027E+01
   C -0.629237085E+02 -0.298262656E+03  0.249994652E+01
   C -0.160121983E+01  0.127226605E+00  0.249994991E+01
   C  0.997240287E+00 -0.884069164E-01  0.249997476E+01
   H -0.203461093E+01  0.373124904E+01  0.249945927E+01
   H  0.195858255E+01  0.312753285E+01  0.249954050E+01
   H -0.456576571E+01 -0.246480424E+00  0.249935450E+01
   H  0.501405709E+01  0.100007322E+01  0.249958819E+01
  Xx  0.456280632E+02 -0.480690151E+02  0.249989897E+01
    11
 # iter =  6750  time[fs]= 6.75000
   N -0.993222073E+00 -0.157271722E+01  0.249996325E+01
   N  0.960434688E+00 -0.180818767E+01  0.249992504E+01
   C -0.613151482E+00  0.151320124E+01  0.249997183E+01
   C -0.655321041E+02 -0.310543118E+03  0.249994422E+01
   C -0.162221448E+01  0.133989712E+00  0.249994596E+01
   C  0.992545386E+00 -0.776126044E-01  0.249997450E+01
   H -0.208630786E+01  0.383567985E+01  0.249941163E+01
   H  0.200376098E+01  0.319433129E+01  0.249950179E+01
   H -0.470446873E+01 -0.258296669E+00  0.249930045E+01
   H  0.515215781E+01  0.104890158E+01  0.249955598E+01
  Xx  0.474720757E+02 -0.500914064E+02  0.249989432E+01
    11
 # iter =  7000  time[fs]= 7.00000
   N -0.101262316E+01 -0.159865302E+01  0.249996243E+01
   N  0.978018422E+00 -0.184985003E+01  0.249992138E+01
   C -0.607411534E+00  0.153301805E+01  0.249997354E+01
   C -0.681404998E+02 -0.322823580E+03  0.249994192E+01
   C -0.164374095E+01  0.140725579E+00  0.249994237E+01
   C  0.988293574E+00 -0.667146540E-01  0.249997437E+01
   H -0.213882810E+01  0.394175613E+01  0.249936031E+01
   H  0.204998424E+01  0.326263245E+01  0.249946382E+01
   H -0.484498153E+01 -0.270285176E+00  0.249924036E+01
   H  0.529132205E+01  0.109778610E+01  0.249952158E+01
  Xx  0.493160895E+02 -0.521137995E+02  0.249988967E+01
    11
 # iter =  7250  time[fs]= 7.25000
   N -0.103229747E+01 -0.162495690E+01  0.249996223E+01
   N  0.995915728E+00 -0.189171768E+01  0.249991725E+01
   C -0.601580713E+00  0.155319863E+01  0.249997483E+01
   C -0.707488954E+02 -0.335104042E+03  0.249993961E+01
   C -0.166566671E+01  0.147531165E+00  0.249993805E+01
   C  0.984384474E+00 -0.556529435E-01  0.249997438E+01
   H -0.219223948E+01  0.404937864E+01  0.249930456E+01
   H  0.209723578E+01  0.333222632E+01  0.249942210E+01
   H -0.498719185E+01 -0.282514890E+00  0.249917742E+01
   H  0.543149703E+01  0.114674232E+01  0.249948651E+01
  Xx  0.511601033E+02 -0.541361927E+02  0.249988502E+01
    11
 # iter =  7500  time[fs]= 7.50000
   N -0.105222225E+01 -0.165172241E+01  0.249996260E+01
   N  0.101409511E+01 -0.193388766E+01  0.249991372E+01
   C -0.595626628E+00  0.157376648E+01  0.249997709E+01
   C -0.733572911E+02 -0.347384504E+03  0.249993731E+01
   C -0.168792703E+01  0.154407805E+00  0.249993190E+01
   C  0.980879155E+00 -0.444526507E-01  0.249997483E+01
   H -0.224644452E+01  0.415839107E+01  0.249925107E+01
   H  0.214547157E+01  0.340310022E+01  0.249938270E+01
   H -0.513105362E+01 -0.294982585E+00  0.249911571E+01
   H  0.557264581E+01  0.119571965E+01  0.249944901E+01
  Xx  0.530041171E+02 -0.561585859E+02  0.249988037E+01
    11
 # iter =  7750  time[fs]= 7.75000
   N -0.107241905E+01 -0.167872982E+01  0.249996296E+01
   N  0.103253697E+01 -0.197649961E+01  0.249991052E+01
   C -0.589661740E+00  0.159480715E+01  0.249998019E+01
   C -0.759656867E+02 -0.359664966E+03  0.249993501E+01
   C -0.171068057E+01  0.161151916E+00  0.249992582E+01
   C  0.977708573E+00 -0.330749120E-01  0.249997533E+01
   H -0.230132706E+01  0.426884051E+01  0.249919824E+01
   H  0.219460269E+01  0.347534323E+01  0.249934167E+01
   H -0.527634961E+01 -0.307644109E+00  0.249905402E+01
   H  0.571474378E+01  0.124474974E+01  0.249940975E+01
  Xx  0.548481309E+02 -0.581809791E+02  0.249987572E+01
    11
 # iter =  8000  time[fs]= 8.00000
   N -0.109281686E+01 -0.170603992E+01  0.249996299E+01
   N  0.105126441E+01 -0.201952709E+01  0.249990728E+01
   C -0.583530098E+00  0.161632961E+01  0.249998206E+01
   C -0.785740824E+02 -0.371945428E+03  0.249993271E+01
   C -0.173385378E+01  0.167760190E+00  0.249992010E+01
   C  0.974877873E+00 -0.214693735E-01  0.249997583E+01
   H -0.235687751E+01  0.438054076E+01  0.249914779E+01
   H  0.224457709E+01  0.354879755E+01  0.249930232E+01
   H -0.542295454E+01 -0.320489633E+00  0.249899301E+01
   H  0.585774065E+01  0.129382298E+01  0.249937164E+01
  Xx  0.566921448E+02 -0.602033723E+02  0.249987107E+01
    11
 # iter =  8250  time[fs]= 8.25000
   N -0.111339356E+01 -0.173362498E+01  0.249996307E+01
   N  0.107026193E+01 -0.206290663E+01  0.249990434E+01
   C -0.577262581E+00  0.163828301E+01  0.249998319E+01
   C -0.811824780E+02 -0.384225890E+03  0.249993041E+01
   C -0.175746175E+01  0.174237986E+00  0.249991427E+01
   C  0.972288287E+00 -0.966875316E-02  0.249997607E+01
   H -0.241318848E+01  0.449339885E+01  0.249909424E+01
   H  0.229539384E+01  0.362341559E+01  0.249926094E+01
   H -0.557087571E+01 -0.333506654E+00  0.249892995E+01
   H  0.600149660E+01  0.134291387E+01  0.249933054E+01
  Xx  0.585361586E+02 -0.622257655E+02  0.249986642E+01
    11
 # iter =  8500  time[fs]= 8.50000
   N -0.113414401E+01 -0.176150421E+01  0.249996373E+01
   N  0.108937243E+01 -0.210647495E+01  0.249990136E+01
   C -0.570866163E+00  0.166058226E+01  0.249998543E+01
   C -0.837908737E+02 -0.396506352E+03  0.249992811E+01
   C -0.178149257E+01  0.180667608E+00  0.249990900E+01
   C  0.970005774E+00  0.234655479E-02  0.249997569E+01
   H -0.247005855E+01  0.460740431E+01  0.249903885E+01
   H  0.234694883E+01  0.369909737E+01  0.249921703E+01
   H -0.571993778E+01 -0.346694308E+00  0.249886423E+01
   H  0.614606973E+01  0.139208545E+01  0.249928652E+01
  Xx  0.603801724E+02 -0.642481587E+02  0.249986178E+01
    11
 # iter =  8750  time[fs]= 8.75000
   N -0.115508160E+01 -0.178962807E+01  0.249996455E+01
   N  0.110861957E+01 -0.215029342E+01  0.249989800E+01
   C -0.564434813E+00  0.168323969E+01  0.249998694E+01
   C -0.863992693E+02 -0.408786813E+03  0.249992581E+01
   C -0.180592662E+01  0.187071671E+00  0.249990326E+01
   C  0.968131178E+00  0.144008647E-01  0.249997613E+01
   H -0.252753479E+01  0.472243791E+01  0.249898452E+01
   H  0.239916867E+01  0.377586402E+01  0.249917728E+01
   H -0.587010336E+01 -0.359998660E+00  0.249879579E+01
   H  0.629144648E+01  0.144128660E+01  0.249924360E+01
  Xx  0.622241862E+02 -0.662705519E+02  0.249985713E+01
    11
 # iter =  9000  time[fs]= 9.00000
   N -0.117625496E+01 -0.181796419E+01  0.249996562E+01
   N  0.112803579E+01 -0.219438972E+01  0.249989523E+01
   C -0.558014379E+00  0.170631197E+01  0.249998982E+01
   C -0.890076649E+02 -0.421067275E+03  0.249992351E+01
   C -0.183067627E+01  0.193473764E+00  0.249989781E+01
   C  0.966507737E+00  0.265315856E-01  0.249997605E+01
   H -0.258552043E+01  0.483840121E+01  0.249893297E+01
   H  0.245213346E+01  0.385378021E+01  0.249913929E+01
   H -0.602126341E+01 -0.373409521E+00  0.249872675E+01
   H  0.643753847E+01  0.149053775E+01  0.249919949E+01
  Xx  0.640682000E+02 -0.682929451E+02  0.249985248E+01
    11
 # iter =  9250  time[fs]= 9.25000
   N -0.119769896E+01 -0.184647986E+01  0.249996693E+01
   N  0.114763617E+01 -0.223873792E+01  0.249989184E+01
   C -0.551560157E+00  0.172967826E+01  0.249999381E+01
   C -0.916160606E+02 -0.433347737E+03  0.249992121E+01
   C -0.185568580E+01  0.199980689E+00  0.249989118E+01
   C  0.965168040E+00  0.387112514E-01  0.249997586E+01
   H -0.264402842E+01  0.495524044E+01  0.249888153E+01
   H  0.250573970E+01  0.393258452E+01  0.249909816E+01
   H -0.617340959E+01 -0.386913293E+00  0.249865538E+01
   H  0.658432982E+01  0.153982444E+01  0.249914814E+01
  Xx  0.659122138E+02 -0.703153383E+02  0.249984783E+01
    11
 # iter =  9500  time[fs]= 9.50000
   N -0.121933588E+01 -0.187524000E+01  0.249996871E+01
   N  0.116744250E+01 -0.228329276E+01  0.249988865E+01
   C -0.544954857E+00  0.175328707E+01  0.249999778E+01
   C -0.942244562E+02 -0.445628199E+03  0.249991891E+01
   C -0.188100285E+01  0.206554390E+00  0.249988364E+01
   C  0.964069921E+00  0.509379042E-01  0.249997531E+01
   H -0.270302237E+01  0.507299577E+01  0.249882613E+01
   H  0.255999170E+01  0.401235181E+01  0.249905553E+01
   H -0.632646450E+01 -0.400531805E+00  0.249858459E+01
   H  0.673174559E+01  0.158911647E+01  0.249909599E+01
  Xx  0.677562276E+02 -0.723377315E+02  0.249984318E+01
    11
 # iter =  9750  time[fs]= 9.75000
   N -0.124111637E+01 -0.190415724E+01  0.249996973E+01
   N  0.118747172E+01 -0.232799019E+01  0.249988559E+01
   C -0.538392091E+00  0.177715386E+01  0.250000237E+01
   C -0.968328519E+02 -0.457908661E+03  0.249991661E+01
   C -0.190662091E+01  0.213062785E+00  0.249987600E+01
   C  0.963232429E+00  0.631769305E-01  0.249997495E+01
   H -0.276245979E+01  0.519154788E+01  0.249876390E+01
   H  0.261483514E+01  0.409299243E+01  0.249901166E+01
   H -0.648037567E+01 -0.414265397E+00  0.249851208E+01
   H  0.687984139E+01  0.163843259E+01  0.249904383E+01
  Xx  0.696002414E+02 -0.743601247E+02  0.249983853E+01
    11
 # iter = 10000  time[fs]=10.00000
   N -0.126303658E+01 -0.193326974E+01  0.249997033E+01
   N  0.120774566E+01 -0.237282859E+01  0.249988357E+01
   C -0.531869995E+00  0.180128053E+01  0.250000729E+01
   C -0.994412475E+02 -0.470189123E+03  0.249991431E+01
   C -0.193253426E+01  0.219647261E+00  0.249986876E+01
   C  0.962637676E+00  0.754330017E-01  0.249997462E+01
   H -0.282241463E+01  0.531080825E+01  0.249870240E+01
   H  0.267029809E+01  0.417451020E+01  0.249896345E+01
   H -0.663509844E+01 -0.428092955E+00  0.249843787E+01
   H  0.702855821E+01  0.168777919E+01  0.249898777E+01
  Xx  0.714442552E+02 -0.763825179E+02  0.249983388E+01
    11
 # iter = 10250  time[fs]=10.25000
   N -0.128507848E+01 -0.196261816E+01  0.249997075E+01
   N  0.122821677E+01 -0.241788904E+01  0.249988232E+01
   C -0.525305540E+00  0.182568868E+01  0.250001319E+01
   C -0.102049643E+03 -0.482469585E+03  0.249991201E+01
   C -0.195872051E+01  0.226196980E+00  0.249986217E+01
   C  0.962226249E+00  0.877360561E-01  0.249997385E+01
   H -0.288273229E+01  0.543081328E+01  0.249864191E+01
   H  0.272636817E+01  0.425688348E+01  0.249891405E+01
   H -0.679061179E+01 -0.442023219E+00  0.249835995E+01
   H  0.717786114E+01  0.173712676E+01  0.249893107E+01
  Xx  0.732882690E+02 -0.784049111E+02  0.249982923E+01
    11
 # iter = 10500  time[fs]=10.50000
   N -0.130720100E+01 -0.199221581E+01  0.249997122E+01
   N  0.124892521E+01 -0.246313417E+01  0.249988023E+01
   C -0.518757726E+00  0.185026303E+01  0.250001963E+01
   C -0.104658039E+03 -0.494750047E+03  0.249990971E+01
   C -0.198511978E+01  0.232859426E+00  0.249985442E+01
   C  0.962073681E+00  0.100062459E+00  0.249997234E+01
   H -0.294348019E+01  0.555150858E+01  0.249857988E+01
   H  0.278301276E+01  0.434003243E+01  0.249886196E+01
   H -0.694689269E+01 -0.456014395E+00  0.249827980E+01
   H  0.732769209E+01  0.178645962E+01  0.249887474E+01
  Xx  0.751322828E+02 -0.804273043E+02  0.249982458E+01
    11
 # iter = 10750  time[fs]=10.75000
   N -0.132938378E+01 -0.202194574E+01  0.249997152E+01
   N  0.126976109E+01 -0.250855005E+01  0.249987896E+01
   C -0.512268133E+00  0.187501746E+01  0.250002737E+01
   C -0.107266434E+03 -0.507030509E+03  0.249990741E+01
   C -0.201166668E+01  0.239549165E+00  0.249984611E+01
   C  0.962153206E+00  0.112379313E+00  0.249997167E+01
   H -0.300462599E+01  0.567288292E+01  0.249851579E+01
   H  0.284012565E+01  0.442389270E+01  0.249881113E+01
   H -0.710388489E+01 -0.470094398E+00  0.249819829E+01
   H  0.747808951E+01  0.183579394E+01  0.249881661E+01
  Xx  0.769762966E+02 -0.824496975E+02  0.249981993E+01
    11
 # iter = 11000  time[fs]=11.00000
   N -0.135165841E+01 -0.205179906E+01  0.249997223E+01
   N  0.129072805E+01 -0.255411220E+01  0.249987857E+01
   C -0.505825706E+00  0.189998818E+01  0.250003485E+01
   C -0.109874830E+03 -0.519310971E+03  0.249990511E+01
   C -0.203844212E+01  0.246259578E+00  0.249983719E+01
   C  0.962407634E+00  0.124712561E+00  0.249997047E+01
   H -0.306608303E+01  0.579488490E+01  0.249844848E+01
   H  0.289776382E+01  0.450851406E+01  0.249875181E+01
   H -0.726152634E+01 -0.484251700E+00  0.249811542E+01
   H  0.762901266E+01  0.188516451E+01  0.249875982E+01
  Xx  0.788203104E+02 -0.844720907E+02  0.249981528E+01
    11
 # iter = 11250  time[fs]=11.25000
   N -0.137407046E+01 -0.208172789E+01  0.249997311E+01
   N  0.131175686E+01 -0.259977935E+01  0.249987864E+01
   C -0.499407067E+00  0.192514880E+01  0.250004208E+01
   C -0.112483226E+03 -0.531591432E+03  0.249990281E+01
   C -0.206538635E+01  0.252988622E+00  0.249982818E+01
   C  0.962967514E+00  0.137063572E+00  0.249996883E+01
   H -0.312790014E+01  0.591743625E+01  0.249838149E+01
   H  0.295586272E+01  0.459380648E+01  0.249869376E+01
   H -0.741984207E+01 -0.498480973E+00  0.249803162E+01
   H  0.778045806E+01  0.193455590E+01  0.249870219E+01
  Xx  0.806643242E+02 -0.864944839E+02  0.249981063E+01
    11
 # iter = 11500  time[fs]=11.50000
   N -0.139658092E+01 -0.211172419E+01  0.249997350E+01
   N  0.133285857E+01 -0.264556099E+01  0.249987833E+01
   C -0.493062259E+00  0.195053969E+01  0.250005033E+01
   C -0.115091621E+03 -0.543871894E+03  0.249990051E+01
   C -0.209250068E+01  0.259766952E+00  0.249981991E+01
   C  0.963711915E+00  0.149427721E+00  0.249996715E+01
   H -0.319005133E+01  0.604059481E+01  0.249831623E+01
   H  0.301438945E+01  0.467975228E+01  0.249863612E+01
   H -0.757877783E+01 -0.512789496E+00  0.249794481E+01
   H  0.793241410E+01  0.198395700E+01  0.249864018E+01
  Xx  0.825083380E+02 -0.885168771E+02  0.249980598E+01
    11
 # iter = 11750  time[fs]=11.75000
   N -0.141918666E+01 -0.214179687E+01  0.249997432E+01
   N  0.135402798E+01 -0.269150743E+01  0.249987835E+01
   C -0.486813663E+00  0.197616513E+01  0.250005779E+01
   C -0.117700017E+03 -0.556152356E+03  0.249989821E+01
   C -0.211978945E+01  0.266543017E+00  0.249981117E+01
   C  0.964651342E+00  0.161747799E+00  0.249996530E+01
   H -0.325246821E+01  0.616427098E+01  0.249825092E+01
   H  0.307335577E+01  0.476638189E+01  0.249858105E+01
   H -0.773829072E+01 -0.527176875E+00  0.249785668E+01
   H  0.808487685E+01  0.203340506E+01  0.249857842E+01
  Xx  0.843523518E+02 -0.905392703E+02  0.249980133E+01
    11
 # iter = 12000  time[fs]=12.00000
   N -0.144191311E+01 -0.217202183E+01  0.249997513E+01
   N  0.137524073E+01 -0.273763238E+01  0.249987879E+01
   C -0.480663907E+00  0.200200447E+01  0.250006609E+01
   C -0.120308413E+03 -0.568432818E+03  0.249989591E+01
   C -0.214720204E+01  0.273380525E+00  0.249980188E+01
   C  0.965859405E+00  0.174026808E+00  0.249996393E+01
   H -0.331521008E+01  0.628844689E+01  0.249818584E+01
   H  0.313277552E+01  0.485360627E+01  0.249852192E+01
   H -0.789840709E+01 -0.541650587E+00  0.249776816E+01
   H  0.823784559E+01  0.208287819E+01  0.249851670E+01
  Xx  0.861963656E+02 -0.925616635E+02  0.249979668E+01
    11
 # iter = 12250  time[fs]=12.25000
   N -0.146479592E+01 -0.220240591E+01  0.249997593E+01
   N  0.139653850E+01 -0.278389587E+01  0.249987828E+01
   C -0.474599518E+00  0.202804412E+01  0.250007421E+01
   C -0.122916808E+03 -0.580713280E+03  0.249989361E+01
   C -0.217478929E+01  0.280217069E+00  0.249979326E+01
   C  0.967293057E+00  0.186257637E+00  0.249996333E+01
   H -0.337822438E+01  0.641313840E+01  0.249811963E+01
   H  0.319259354E+01  0.494137143E+01  0.249846120E+01
   H -0.805909730E+01 -0.556229798E+00  0.249767639E+01
   H  0.839128507E+01  0.213235578E+01  0.249845217E+01
  Xx  0.880403794E+02 -0.945840567E+02  0.249979203E+01
    11
 # iter = 12500  time[fs]=12.50000
   N -0.148778215E+01 -0.223296827E+01  0.249997596E+01
   N  0.141795112E+01 -0.283022846E+01  0.249987746E+01
   C -0.468552659E+00  0.205431270E+01  0.250008233E+01
   C -0.125525204E+03 -0.592993742E+03  0.249989131E+01
   C -0.220249250E+01  0.287131187E+00  0.249978453E+01
   C  0.968900159E+00  0.198436896E+00  0.249996202E+01
   H -0.344148600E+01  0.653835473E+01  0.249805232E+01
   H  0.325278117E+01  0.502973854E+01  0.249840377E+01
   H -0.822037893E+01 -0.570889618E+00  0.249758153E+01
   H  0.854523958E+01  0.218185324E+01  0.249838694E+01
  Xx  0.898843932E+02 -0.966064499E+02  0.249978738E+01
    11
 # iter = 12750  time[fs]=12.75000
   N -0.151082442E+01 -0.226366846E+01  0.249997643E+01
   N  0.143948063E+01 -0.287660560E+01  0.249987658E+01
   C -0.462582597E+00  0.208073559E+01  0.250009102E+01
   C -0.128133600E+03 -0.605274204E+03  0.249988901E+01
   C -0.223038636E+01  0.294029344E+00  0.249977656E+01
   C  0.970716551E+00  0.210627009E+00  0.249996161E+01
   H -0.350503405E+01  0.666402000E+01  0.249798315E+01
   H  0.331329709E+01  0.511867919E+01  0.249834349E+01
   H -0.838222716E+01 -0.585625609E+00  0.249748601E+01
   H  0.869968872E+01  0.223136691E+01  0.249831973E+01
  Xx  0.917284070E+02 -0.986288431E+02  0.249978273E+01
    11
 # iter = 13000  time[fs]=13.00000
   N -0.153389363E+01 -0.229446249E+01  0.249997663E+01
   N  0.146112434E+01 -0.292310564E+01  0.249987601E+01
   C -0.456639596E+00  0.210743536E+01  0.250009897E+01
   C -0.130741995E+03 -0.617554666E+03  0.249988671E+01
   C -0.225845097E+01  0.300905352E+00  0.249976833E+01
   C  0.972670279E+00  0.222764738E+00  0.249996131E+01
   H -0.356883460E+01  0.679019561E+01  0.249791407E+01
   H  0.337413000E+01  0.520814807E+01  0.249828276E+01
   H -0.854463374E+01 -0.600452757E+00  0.249738881E+01
   H  0.885464063E+01  0.228089062E+01  0.249825116E+01
  Xx  0.935724208E+02 -0.100651236E+03  0.249977808E+01
    11
 # iter = 13250  time[fs]=13.25000
   N -0.155696925E+01 -0.232528284E+01  0.249997671E+01
   N  0.148287595E+01 -0.296975238E+01  0.249987560E+01
   C -0.450660116E+00  0.213428680E+01  0.250010656E+01
   C -0.133350391E+03 -0.629835128E+03  0.249988441E+01
   C -0.228667480E+01  0.307779645E+00  0.249976123E+01
   C  0.974788842E+00  0.234801858E+00  0.249996086E+01
   H -0.363286077E+01  0.691680384E+01  0.249784110E+01
   H  0.343530030E+01  0.529814793E+01  0.249821945E+01
   H -0.870759213E+01 -0.615365546E+00  0.249728963E+01
   H  0.901007223E+01  0.233042613E+01  0.249818307E+01
  Xx  0.954164346E+02 -0.102673630E+03  0.249977343E+01
    11
 # iter = 13500  time[fs]=13.50000
   N -0.158006046E+01 -0.235609326E+01  0.249997705E+01
   N  0.150473758E+01 -0.301654130E+01  0.249987537E+01
   C -0.444783992E+00  0.216140881E+01  0.250011630E+01
   C -0.135958787E+03 -0.642115590E+03  0.249988211E+01
   C -0.231502227E+01  0.314647772E+00  0.249975474E+01
   C  0.977068700E+00  0.246859276E+00  0.249996027E+01
   H -0.369715500E+01  0.704385241E+01  0.249776664E+01
   H  0.349678019E+01  0.538864884E+01  0.249815357E+01
   H -0.887105598E+01 -0.630346033E+00  0.249719041E+01
   H  0.916598199E+01  0.237998681E+01  0.249811468E+01
  Xx  0.972604484E+02 -0.104696023E+03  0.249976878E+01
    11
 # iter = 13750  time[fs]=13.75000
   N -0.160316041E+01 -0.238695337E+01  0.249997689E+01
   N  0.152667462E+01 -0.306341514E+01  0.249987545E+01
   C -0.438912318E+00  0.218868769E+01  0.250012601E+01
   C -0.138567182E+03 -0.654396051E+03  0.249987981E+01
   C -0.234345931E+01  0.321491397E+00  0.249974741E+01
   C  0.979431226E+00  0.258839201E+00  0.249995949E+01
   H -0.376169768E+01  0.717131582E+01  0.249769213E+01
   H  0.355855906E+01  0.547964556E+01  0.249808784E+01
   H -0.903502614E+01 -0.645404456E+00  0.249708925E+01
   H  0.932235795E+01  0.242956593E+01  0.249804585E+01
  Xx  0.991044622E+02 -0.106718416E+03  0.249976413E+01
    11
 # iter = 14000  time[fs]=14.00000
   N -0.162627690E+01 -0.241789664E+01  0.249997706E+01
   N  0.154861854E+01 -0.311033312E+01  0.249987573E+01
   C -0.433072751E+00  0.221614991E+01  0.250013504E+01
   C -0.141175578E+03 -0.666676513E+03  0.249987750E+01
   C -0.237209248E+01  0.328353566E+00  0.249973988E+01
   C  0.982028746E+00  0.270762803E+00  0.249995878E+01
   H -0.382645157E+01  0.729921070E+01  0.249761647E+01
   H  0.362067244E+01  0.557114247E+01  0.249802354E+01
   H -0.919948217E+01 -0.660538736E+00  0.249698734E+01
   H  0.947918876E+01  0.247916119E+01  0.249797590E+01
  Xx  0.100948476E+03 -0.108740809E+03  0.249975948E+01
    11
 # iter = 14250  time[fs]=14.25000
   N -0.164945778E+01 -0.244899161E+01  0.249997747E+01
   N  0.157057230E+01 -0.315731002E+01  0.249987637E+01
   C -0.427287761E+00  0.224380400E+01  0.250014513E+01
   C -0.143783974E+03 -0.678956975E+03  0.249987520E+01
   C -0.240080089E+01  0.335174499E+00  0.249973237E+01
   C  0.984751305E+00  0.282697908E+00  0.249995745E+01
   H -0.389143523E+01  0.742752328E+01  0.249754189E+01
   H  0.368305739E+01  0.566306996E+01  0.249795740E+01
   H -0.936442102E+01 -0.675750661E+00  0.249688467E+01
   H  0.963646380E+01  0.252877787E+01  0.249790488E+01
  Xx  0.102792490E+03 -0.110763202E+03  0.249975483E+01
    11
 # iter = 14500  time[fs]=14.50000
   N -0.167273470E+01 -0.248019169E+01  0.249997770E+01
   N  0.159255651E+01 -0.320441421E+01  0.249987629E+01
   C -0.421572427E+00  0.227152880E+01  0.250015461E+01
   C -0.146392369E+03 -0.691237437E+03  0.249987290E+01
   C -0.242968787E+01  0.342048521E+00  0.249972476E+01
   C  0.987660200E+00  0.294562766E+00  0.249995596E+01
   H -0.395665515E+01  0.755620218E+01  0.249746704E+01
   H  0.374574073E+01  0.575545499E+01  0.249789033E+01
   H -0.952982665E+01 -0.691036149E+00  0.249678081E+01
   H  0.979416972E+01  0.257841457E+01  0.249783354E+01
  Xx  0.104636504E+03 -0.112785595E+03  0.249975018E+01
    11
 # iter = 14750  time[fs]=14.75000
   N -0.169612980E+01 -0.251150489E+01  0.249997759E+01
   N  0.161455395E+01 -0.325164986E+01  0.249987718E+01
   C -0.415885805E+00  0.229947057E+01  0.250016352E+01
   C -0.149000765E+03 -0.703517899E+03  0.249987060E+01
   C -0.245871867E+01  0.348934007E+00  0.249971818E+01
   C  0.990721837E+00  0.306470934E+00  0.249995470E+01
   H -0.402207206E+01  0.768529586E+01  0.249739039E+01
   H  0.380868043E+01  0.584829258E+01  0.249782359E+01
   H -0.969570066E+01 -0.706394784E+00  0.249667585E+01
   H  0.995229407E+01  0.262807281E+01  0.249776165E+01
  Xx  0.106480517E+03 -0.114807989E+03  0.249974553E+01
    11
 # iter = 15000  time[fs]=15.00000
   N -0.171962868E+01 -0.254292508E+01  0.249997746E+01
   N  0.163659247E+01 -0.329894623E+01  0.249987770E+01
   C -0.410240185E+00  0.232751697E+01  0.250017307E+01
   C -0.151609161E+03 -0.715798361E+03  0.249986830E+01
   C -0.248785717E+01  0.355819415E+00  0.249971130E+01
   C  0.993964002E+00  0.318336613E+00  0.249995360E+01
   H -0.408770029E+01  0.781478656E+01  0.249731355E+01
   H  0.387189969E+01  0.594152881E+01  0.249775545E+01
   H -0.986203974E+01 -0.721833772E+00  0.249656977E+01
   H  0.101108245E+02  0.267774428E+01  0.249768914E+01
  Xx  0.108324531E+03 -0.116830382E+03  0.249974089E+01
    11
 # iter = 15250  time[fs]=15.25000
   N -0.174320047E+01 -0.257439222E+01  0.249997753E+01
   N  0.165870808E+01 -0.334625835E+01  0.249987919E+01
   C -0.404583992E+00  0.235568061E+01  0.250018268E+01
   C -0.154217556E+03 -0.728078823E+03  0.249986600E+01
   C -0.251721116E+01  0.362730239E+00  0.249970424E+01
   C  0.997286462E+00  0.330138017E+00  0.249995168E+01
   H -0.415355058E+01  0.794466895E+01  0.249723731E+01
   H  0.393540036E+01  0.603515496E+01  0.249768658E+01
   H -0.100288277E+02 -0.737353853E+00  0.249646259E+01
   H  0.102697548E+02  0.272742850E+01  0.249761662E+01
  Xx  0.110168545E+03 -0.118852775E+03  0.249973624E+01
    11
 # iter = 15500  time[fs]=15.50000
   N -0.176681472E+01 -0.260588578E+01  0.249997718E+01
   N  0.168091925E+01 -0.339361295E+01  0.249987972E+01
   C -0.398898800E+00  0.238404329E+01  0.250019243E+01
   C -0.156825952E+03 -0.740359285E+03  0.249986370E+01
   C -0.254664183E+01  0.369625807E+00  0.249969752E+01
   C  0.100074068E+01  0.341980231E+00  0.249995153E+01
   H -0.421960160E+01  0.807494150E+01  0.249716075E+01
   H  0.399916668E+01  0.612921232E+01  0.249761703E+01
   H -0.101960552E+02 -0.752950235E+00  0.249635429E+01
   H  0.104290749E+02  0.277712909E+01  0.249754401E+01
  Xx  0.112012559E+03 -0.120875168E+03  0.249973159E+01
    11
 # iter = 15750  time[fs]=15.75000
   N -0.179044918E+01 -0.263743345E+01  0.249997668E+01
   N  0.170324030E+01 -0.344104566E+01  0.249988057E+01
   C -0.393240490E+00  0.241246282E+01  0.250020254E+01
   C -0.159434347E+03 -0.752639747E+03  0.249986140E+01
   C -0.257621851E+01  0.376568464E+00  0.249969159E+01
   C  0.100430918E+01  0.353731737E+00  0.249995053E+01
   H -0.428587430E+01  0.820560566E+01  0.249708278E+01
   H  0.406319530E+01  0.622366535E+01  0.249754673E+01
   H -0.103637037E+02 -0.768620598E+00  0.249624489E+01
   H  0.105887785E+02  0.282684309E+01  0.249747047E+01
  Xx  0.113856573E+03 -0.122897561E+03  0.249972694E+01
    11
 # iter = 16000  time[fs]=16.00000
   N -0.181408204E+01 -0.266907439E+01  0.249997537E+01
   N  0.172568440E+01 -0.348858865E+01  0.249988127E+01
   C -0.387610707E+00  0.244108452E+01  0.250021239E+01
   C -0.162042743E+03 -0.764920209E+03  0.249985910E+01
   C -0.260592000E+01  0.383513467E+00  0.249968531E+01
   C  0.100799319E+01  0.365482546E+00  0.249994915E+01
   H -0.435236608E+01  0.833667175E+01  0.249700461E+01
   H  0.412745661E+01  0.631850494E+01  0.249747381E+01
   H -0.105317633E+02 -0.784363725E+00  0.249613437E+01
   H  0.107488579E+02  0.287657345E+01  0.249739582E+01
  Xx  0.115700586E+03 -0.124919955E+03  0.249972229E+01
    11
 # iter = 16250  time[fs]=16.25000
   N -0.183768137E+01 -0.270083171E+01  0.249997432E+01
   N  0.174822759E+01 -0.353621033E+01  0.249988283E+01
   C -0.381942828E+00  0.246983661E+01  0.250022367E+01
   C -0.164651139E+03 -0.777200670E+03  0.249985680E+01
   C -0.263572812E+01  0.390443808E+00  0.249967935E+01
   C  0.101182736E+01  0.377199627E+00  0.249994762E+01
   H -0.441907371E+01  0.846814136E+01  0.249692573E+01
   H  0.419195373E+01  0.641370882E+01  0.249739803E+01
   H -0.107002206E+02 -0.800184155E+00  0.249602275E+01
   H  0.109093066E+02  0.292631736E+01  0.249732016E+01
  Xx  0.117544600E+03 -0.126942348E+03  0.249971764E+01
    11
 # iter = 16500  time[fs]=16.50000
   N -0.186125320E+01 -0.273269510E+01  0.249997345E+01
   N  0.177081650E+01 -0.358385243E+01  0.249988400E+01
   C -0.376321182E+00  0.249870625E+01  0.250023436E+01
   C -0.167259534E+03 -0.789481132E+03  0.249985450E+01
   C -0.266567765E+01  0.397406773E+00  0.249967245E+01
   C  0.101573856E+01  0.388897779E+00  0.249994665E+01
   H -0.448600605E+01  0.860001438E+01  0.249684505E+01
   H  0.425669605E+01  0.650927021E+01  0.249732041E+01
   H -0.108690649E+02 -0.816083515E+00  0.249591011E+01
   H  0.110701223E+02  0.297607416E+01  0.249724406E+01
  Xx  0.119388614E+03 -0.128964741E+03  0.249971299E+01
    11
 # iter = 16750  time[fs]=16.75000
   N -0.188483129E+01 -0.276464441E+01  0.249997250E+01
   N  0.179341538E+01 -0.363150997E+01  0.249988495E+01
   C -0.370722914E+00  0.252776301E+01  0.250024483E+01
   C -0.169867930E+03 -0.801761594E+03  0.249985220E+01
   C -0.269573172E+01  0.404353194E+00  0.249966598E+01
   C  0.101977937E+01  0.400525767E+00  0.249994655E+01
   H -0.455316158E+01  0.873228374E+01  0.249676294E+01
   H  0.432170324E+01  0.660521526E+01  0.249724367E+01
   H -0.110382873E+02 -0.832062018E+00  0.249579640E+01
   H  0.112312983E+02  0.302584296E+01  0.249716795E+01
  Xx  0.121232628E+03 -0.130987134E+03  0.249970834E+01
    11
 # iter = 17000  time[fs]=17.00000
   N -0.190845896E+01 -0.279663768E+01  0.249997181E+01
   N  0.181601161E+01 -0.367924628E+01  0.249988612E+01
   C -0.365132341E+00  0.255691901E+01  0.250025496E+01
   C -0.172476326E+03 -0.814042056E+03  0.249984990E+01
   C -0.272589028E+01  0.411316817E+00  0.249965863E+01
   C  0.102394769E+01  0.412108599E+00  0.249994737E+01
   H -0.462053524E+01  0.886494444E+01  0.249668041E+01
   H  0.438692708E+01  0.670150620E+01  0.249716632E+01
   H -0.112078803E+02 -0.848117034E+00  0.249568171E+01
   H  0.113928254E+02  0.307562174E+01  0.249709184E+01
  Xx  0.123076642E+03 -0.133009527E+03  0.249970369E+01
    11
 # iter = 17250  time[fs]=17.25000
   N -0.193217049E+01 -0.282864819E+01  0.249997088E+01
   N  0.183859552E+01 -0.372709972E+01  0.249988708E+01
   C -0.359585748E+00  0.258625309E+01  0.250026539E+01
   C -0.175084721E+03 -0.826322518E+03  0.249984760E+01
   C -0.275618220E+01  0.418289286E+00  0.249965151E+01
   C  0.102820227E+01  0.423641295E+00  0.249994824E+01
   H -0.468811800E+01  0.899797921E+01  0.249659780E+01
   H  0.445238345E+01  0.679814751E+01  0.249708827E+01
   H -0.113778342E+02 -0.864242364E+00  0.249556686E+01
   H  0.115546936E+02  0.312541192E+01  0.249701573E+01
  Xx  0.124920655E+03 -0.135031921E+03  0.249969904E+01
    11
 # iter = 17500  time[fs]=17.50000
   N -0.195597976E+01 -0.286067014E+01  0.249997005E+01
   N  0.186118518E+01 -0.377502145E+01  0.249988821E+01
   C -0.354012170E+00  0.261571682E+01  0.250027565E+01
   C -0.177693117E+03 -0.838602980E+03  0.249984530E+01
   C -0.278657752E+01  0.425239397E+00  0.249964457E+01
   C  0.103257939E+01  0.435130733E+00  0.249994857E+01
   H -0.475590299E+01  0.913138305E+01  0.249651485E+01
   H  0.451806400E+01  0.689510407E+01  0.249700981E+01
   H -0.115481404E+02 -0.880435846E+00  0.249545201E+01
   H  0.117168910E+02  0.317521167E+01  0.249693962E+01
  Xx  0.126764669E+03 -0.137054314E+03  0.249969439E+01
    11
 # iter = 17750  time[fs]=17.75000
   N -0.197988691E+01 -0.289272995E+01  0.249996943E+01
   N  0.188380969E+01 -0.382295925E+01  0.249988895E+01
   C -0.348450724E+00  0.264535670E+01  0.250028641E+01
   C -0.180301513E+03 -0.850883442E+03  0.249984300E+01
   C -0.281706054E+01  0.432236190E+00  0.249963786E+01
   C  0.103702042E+01  0.446567655E+00  0.249995036E+01
   H -0.482388354E+01  0.926514583E+01  0.249643111E+01
   H  0.458395004E+01  0.699238011E+01  0.249693010E+01
   H -0.117187928E+02 -0.896694811E+00  0.249533716E+01
   H  0.118794071E+02  0.322502082E+01  0.249686352E+01
  Xx  0.128608683E+03 -0.139076707E+03  0.249968974E+01
    11
 # iter = 18000  time[fs]=18.00000
   N -0.200385555E+01 -0.292487922E+01  0.249996900E+01
   N  0.190648356E+01 -0.387091268E+01  0.249988983E+01
   C -0.342886566E+00  0.267510854E+01  0.250029674E+01
   C -0.182909908E+03 -0.863163904E+03  0.249984070E+01
   C -0.284766427E+01  0.439208563E+00  0.249963080E+01
   C  0.104156678E+01  0.457971434E+00  0.249995100E+01
   H -0.489205682E+01  0.939926137E+01  0.249634630E+01
   H  0.465003380E+01  0.708996723E+01  0.249684923E+01
   H -0.118897842E+02 -0.913018909E+00  0.249522225E+01
   H  0.120422329E+02  0.327483851E+01  0.249678741E+01
  Xx  0.130452697E+03 -0.141099100E+03  0.249968509E+01
    11
 # iter = 18250  time[fs]=18.25000
   N -0.202784311E+01 -0.295714782E+01  0.249996869E+01
   N  0.192923326E+01 -0.391891635E+01  0.249989157E+01
   C -0.337311402E+00  0.270503557E+01  0.250030752E+01
   C -0.185518304E+03 -0.875444366E+03  0.249983840E+01
   C -0.287834917E+01  0.446236147E+00  0.249962385E+01
   C  0.104622176E+01  0.469314581E+00  0.249995195E+01
   H -0.496041458E+01  0.953371859E+01  0.249626040E+01
   H  0.471630764E+01  0.718783019E+01  0.249676729E+01
   H -0.120611097E+02 -0.929406286E+00  0.249510682E+01
   H  0.122053620E+02  0.332466515E+01  0.249671130E+01
  Xx  0.132296711E+03 -0.143121493E+03  0.249968044E+01
    11
 # iter = 18500  time[fs]=18.50000
   N -0.205181116E+01 -0.298952430E+01  0.249996866E+01
   N  0.195209073E+01 -0.396700821E+01  0.249989302E+01
   C -0.331777924E+00  0.273507770E+01  0.250031802E+01
   C -0.188126700E+03 -0.887724828E+03  0.249983610E+01
   C -0.290914179E+01  0.453262874E+00  0.249961698E+01
   C  0.105094956E+01  0.480639983E+00  0.249995315E+01
   H -0.502895490E+01  0.966850825E+01  0.249617339E+01
   H  0.478278401E+01  0.728598766E+01  0.249668314E+01
   H -0.122327597E+02 -0.945855474E+00  0.249499091E+01
   H  0.123687903E+02  0.337450001E+01  0.249663519E+01
  Xx  0.134140724E+03 -0.145143887E+03  0.249967579E+01
    11
 # iter = 18750  time[fs]=18.75000
   N -0.207574022E+01 -0.302197130E+01  0.249996881E+01
   N  0.197505038E+01 -0.401518469E+01  0.249989400E+01
   C -0.326246354E+00  0.276524617E+01  0.250032879E+01
   C -0.190735095E+03 -0.900005290E+03  0.249983380E+01
   C -0.294001560E+01  0.460296986E+00  0.249961064E+01
   C  0.105580408E+01  0.491886195E+00  0.249995270E+01
   H -0.509767684E+01  0.980362468E+01  0.249608527E+01
   H  0.484944897E+01  0.738444192E+01  0.249659880E+01
   H -0.124047260E+02 -0.962365067E+00  0.249487496E+01
   H  0.125325121E+02  0.342434126E+01  0.249655908E+01
  Xx  0.135984738E+03 -0.147166280E+03  0.249967114E+01
    11
 # iter = 19000  time[fs]=19.00000
   N -0.209963655E+01 -0.305445528E+01  0.249996843E+01
   N  0.199807339E+01 -0.406338968E+01  0.249989485E+01
   C -0.320730277E+00  0.279556313E+01  0.250034004E+01
   C -0.193343491E+03 -0.912285751E+03  0.249983150E+01
   C -0.297100052E+01  0.467365135E+00  0.249960371E+01
   C  0.106071661E+01  0.503134169E+00  0.249995448E+01
   H -0.516657553E+01  0.993905496E+01  0.249599604E+01
   H  0.491628833E+01  0.748317555E+01  0.249651500E+01
   H -0.125769962E+02 -0.978932662E+00  0.249475900E+01
   H  0.126965226E+02  0.347418995E+01  0.249648298E+01
  Xx  0.137828752E+03 -0.149188673E+03  0.249966649E+01
    11
 # iter = 19250  time[fs]=19.25000
   N -0.212351259E+01 -0.308695331E+01  0.249996788E+01
   N  0.202112974E+01 -0.411158328E+01  0.249989614E+01
   C -0.315265921E+00  0.282593145E+01  0.250035047E+01
   C -0.195951887E+03 -0.924566213E+03  0.249982920E+01
   C -0.300206327E+01  0.474418556E+00  0.249959687E+01
   C  0.106574665E+01  0.514302336E+00  0.249995592E+01
   H -0.523565041E+01  0.100747968E+02  0.249590620E+01
   H  0.498331561E+01  0.758219813E+01  0.249643039E+01
   H -0.127495627E+02 -0.995558301E+00  0.249464305E+01
   H  0.128608168E+02  0.352404452E+01  0.249640687E+01
  Xx  0.139672766E+03 -0.151211066E+03  0.249966184E+01
    11
 # iter = 19500  time[fs]=19.50000
   N -0.214739269E+01 -0.311946000E+01  0.249996768E+01
   N  0.204420232E+01 -0.415981556E+01  0.249989760E+01
   C -0.309755317E+00  0.285646616E+01  0.250036155E+01
   C -0.198560282E+03 -0.936846675E+03  0.249982690E+01
   C -0.303320618E+01  0.481519539E+00  0.249959013E+01
   C  0.107082160E+01  0.525454257E+00  0.249995772E+01
   H -0.530489483E+01  0.102108416E+02  0.249581619E+01
   H  0.505051124E+01  0.768151335E+01  0.249634527E+01
   H -0.129224196E+02 -0.101223921E+01  0.249452709E+01
   H  0.130253905E+02  0.357390601E+01  0.249633076E+01
  Xx  0.141516780E+03 -0.153233459E+03  0.249965719E+01
    11
 # iter = 19750  time[fs]=19.75000
   N -0.217131213E+01 -0.315201265E+01  0.249996733E+01
   N  0.206726679E+01 -0.420814090E+01  0.249989853E+01
   C -0.304311922E+00  0.288706886E+01  0.250037221E+01
   C -0.201168678E+03 -0.949127137E+03  0.249982460E+01
   C -0.306444509E+01  0.488604887E+00  0.249958308E+01
   C  0.107601185E+01  0.536561876E+00  0.249996005E+01
   H -0.537430753E+01  0.103471852E+02  0.249572522E+01
   H  0.511787460E+01  0.778111097E+01  0.249626033E+01
   H -0.130955598E+02 -0.102897508E+01  0.249441113E+01
   H  0.131902389E+02  0.362377316E+01  0.249625465E+01
  Xx  0.143360793E+03 -0.155255853E+03  0.249965254E+01
    11
 # iter = 20000  time[fs]=20.00000
   N -0.219529020E+01 -0.318467654E+01  0.249996720E+01
   N  0.209030272E+01 -0.425654851E+01  0.249989928E+01
   C -0.298850021E+00  0.291781715E+01  0.250038232E+01
   C -0.203777073E+03 -0.961407599E+03  0.249982230E+01
   C -0.309572533E+01  0.495718729E+00  0.249957597E+01
   C  0.108125744E+01  0.547599566E+00  0.249996188E+01
   H -0.544388356E+01  0.104838217E+02  0.249563366E+01
   H  0.518541333E+01  0.788099655E+01  0.249617499E+01
   H -0.132689783E+02 -0.104576533E+01  0.249429518E+01
   H  0.133553581E+02  0.367364562E+01  0.249617854E+01
  Xx  0.145204807E+03 -0.157278246E+03  0.249964789E+01
    11
 # iter = 20250  time[fs]=20.25000
   N -0.221932891E+01 -0.321747501E+01  0.249996678E+01
   N  0.211332350E+01 -0.430499355E+01  0.249990091E+01
   C -0.293392696E+00  0.294868133E+01  0.250039340E+01
   C -0.206385469E+03 -0.973688061E+03  0.249982000E+01
   C -0.312709843E+01  0.502854907E+00  0.249956899E+01
   C  0.108659256E+01  0.558603594E+00  0.249996499E+01
   H -0.551361982E+01  0.106207468E+02  0.249554193E+01
   H  0.525312386E+01  0.798117043E+01  0.249608874E+01
   H -0.134426683E+02 -0.106260911E+01  0.249417922E+01
   H  0.135207431E+02  0.372352298E+01  0.249610244E+01
  Xx  0.147048821E+03 -0.159300639E+03  0.249964324E+01
    11
 # iter = 20500  time[fs]=20.50000
   N -0.224341317E+01 -0.325036880E+01  0.249996667E+01
   N  0.213635852E+01 -0.435344651E+01  0.249990260E+01
   C -0.287926418E+00  0.297966707E+01  0.250040422E+01
   C -0.208993865E+03 -0.985968523E+03  0.249981769E+01
   C -0.315854928E+01  0.509968305E+00  0.249956138E+01
   C  0.109199475E+01  0.569513884E+00  0.249996677E+01
   H -0.558351430E+01  0.107579548E+02  0.249544926E+01
   H  0.532100271E+01  0.808161924E+01  0.249600119E+01
   H -0.136166246E+02 -0.107950561E+01  0.249406327E+01
   H  0.136863893E+02  0.377340419E+01  0.249602633E+01
  Xx  0.148892835E+03 -0.161323032E+03  0.249963859E+01
    11
 # iter = 20750  time[fs]=20.75000
   N -0.226751469E+01 -0.328331485E+01  0.249996666E+01
   N  0.215944157E+01 -0.440191199E+01  0.249990362E+01
   C -0.282461565E+00  0.301078705E+01  0.250041481E+01
   C -0.211602260E+03 -0.998248985E+03  0.249981539E+01
   C -0.319008093E+01  0.517128531E+00  0.249955386E+01
   C  0.109745952E+01  0.580403855E+00  0.249996840E+01
   H -0.565356246E+01  0.108954358E+02  0.249535599E+01
   H  0.538905368E+01  0.818234339E+01  0.249591243E+01
   H -0.137908419E+02 -0.109645234E+01  0.249394731E+01
   H  0.138522926E+02  0.382328918E+01  0.249595022E+01
  Xx  0.150736849E+03 -0.163345425E+03  0.249963394E+01
    11
 # iter = 21000  time[fs]=21.00000
   N -0.229160713E+01 -0.331627216E+01  0.249996618E+01
   N  0.218260182E+01 -0.445043916E+01  0.249990483E+01
   C -0.276952820E+00  0.304199338E+01  0.250042573E+01
   C -0.214210656E+03 -0.101052945E+04  0.249981309E+01
   C -0.322170897E+01  0.524253314E+00  0.249954682E+01
   C  0.110299908E+01  0.591206746E+00  0.249997011E+01
   H -0.572376332E+01  0.110331863E+02  0.249526273E+01
   H  0.545727556E+01  0.828333919E+01  0.249582342E+01
   H -0.139653149E+02 -0.111344896E+01  0.249383135E+01
   H  0.140184467E+02  0.387317626E+01  0.249587411E+01
  Xx  0.152580862E+03 -0.165367819E+03  0.249962929E+01
    11
 # iter = 21250  time[fs]=21.25000
   N -0.231566905E+01 -0.334921220E+01  0.249996556E+01
   N  0.220584257E+01 -0.449906644E+01  0.249990644E+01
   C -0.271484348E+00  0.307332486E+01  0.250043627E+01
   C -0.216819052E+03 -0.102280991E+04  0.249981079E+01
   C -0.325339305E+01  0.531420577E+00  0.249953980E+01
   C  0.110860390E+01  0.602002579E+00  0.249997095E+01
   H -0.579411280E+01  0.111711966E+02  0.249516946E+01
   H  0.552566107E+01  0.838460231E+01  0.249573430E+01
   H -0.141400378E+02 -0.113049318E+01  0.249371540E+01
   H  0.141848491E+02  0.392306589E+01  0.249579800E+01
  Xx  0.154424876E+03 -0.167390212E+03  0.249962464E+01
    11
 # iter = 21500  time[fs]=21.50000
   N -0.233969241E+01 -0.338215712E+01  0.249996537E+01
   N  0.222915032E+01 -0.454774354E+01  0.249990813E+01
   C -0.265964152E+00  0.310470292E+01  0.250044693E+01
   C -0.219427447E+03 -0.103509037E+04  0.249980849E+01
   C -0.328517059E+01  0.538576560E+00  0.249953332E+01
   C  0.111426416E+01  0.612755162E+00  0.249997353E+01
   H -0.586461124E+01  0.113094643E+02  0.249507619E+01
   H  0.559421870E+01  0.848613392E+01  0.249564494E+01
   H -0.143150034E+02 -0.114758474E+01  0.249359944E+01
   H  0.143514960E+02  0.397295701E+01  0.249572190E+01
  Xx  0.156268890E+03 -0.169412605E+03  0.249962000E+01
    11
 # iter = 21750  time[fs]=21.75000
   N -0.236368999E+01 -0.341516334E+01  0.249996525E+01
   N  0.225251682E+01 -0.459640186E+01  0.249990967E+01
   C -0.260468706E+00  0.313619924E+01  0.250045777E+01
   C -0.222035843E+03 -0.104737083E+04  0.249980619E+01
   C -0.331698885E+01  0.545729457E+00  0.249952668E+01
   C  0.111999689E+01  0.623481557E+00  0.249997585E+01
   H -0.593525526E+01  0.114479823E+02  0.249498292E+01
   H  0.566294324E+01  0.858793323E+01  0.249555528E+01
   H -0.144902067E+02 -0.116472228E+01  0.249348349E+01
   H  0.145183833E+02  0.402284977E+01  0.249564579E+01
  Xx  0.158112904E+03 -0.171434998E+03  0.249961535E+01
    11
 # iter = 22000  time[fs]=22.00000
   N -0.238769282E+01 -0.344827014E+01  0.249996491E+01
   N  0.227592364E+01 -0.464505664E+01  0.249991095E+01
   C -0.254966125E+00  0.316777926E+01  0.250046803E+01
   C -0.224644239E+03 -0.105965129E+04  0.249980389E+01
   C -0.334890661E+01  0.552909989E+00  0.249951937E+01
   C  0.112580530E+01  0.634169438E+00  0.249997814E+01
   H -0.600604346E+01  0.115867453E+02  0.249488966E+01
   H  0.573183710E+01  0.868999621E+01  0.249546514E+01
   H -0.146656417E+02 -0.118190518E+01  0.249336753E+01
   H  0.146855068E+02  0.407274334E+01  0.249556968E+01
  Xx  0.159956918E+03 -0.173457391E+03  0.249961070E+01
    11
 # iter = 22250  time[fs]=22.25000
   N -0.241172245E+01 -0.348148182E+01  0.249996434E+01
   N  0.229932641E+01 -0.469377902E+01  0.249991249E+01
   C -0.249473636E+00  0.319943960E+01  0.250047816E+01
   C -0.227252634E+03 -0.107193176E+04  0.249980159E+01
   C -0.338085468E+01  0.560058662E+00  0.249951277E+01
   C  0.113167318E+01  0.644811761E+00  0.249998099E+01
   H -0.607697258E+01  0.117257496E+02  0.249479639E+01
   H  0.580090233E+01  0.879232003E+01  0.249537462E+01
   H -0.148413050E+02 -0.119913313E+01  0.249325157E+01
   H  0.148528614E+02  0.412263690E+01  0.249549357E+01
  Xx  0.161800931E+03 -0.175479785E+03  0.249960605E+01
    11
 # iter = 22500  time[fs]=22.50000
   N -0.243579691E+01 -0.351476974E+01  0.249996358E+01
   N  0.232269164E+01 -0.474258842E+01  0.249991433E+01
   C -0.244006045E+00  0.323121385E+01  0.250048813E+01
   C -0.229861030E+03 -0.108421222E+04  0.249979929E+01
   C -0.341289783E+01  0.567245286E+00  0.249950584E+01
   C  0.113762051E+01  0.655433775E+00  0.249998302E+01
   H -0.614803859E+01  0.118649885E+02  0.249470312E+01
   H  0.587013481E+01  0.889490028E+01  0.249528409E+01
   H -0.150171911E+02 -0.121640460E+01  0.249313562E+01
   H  0.150204414E+02  0.417253011E+01  0.249541746E+01
  Xx  0.163644945E+03 -0.177502178E+03  0.249960140E+01
    11
 # iter = 22750  time[fs]=22.75000
   N -0.245993179E+01 -0.354807540E+01  0.249996355E+01
   N  0.234603501E+01 -0.479144473E+01  0.249991650E+01
   C -0.238516452E+00  0.326304440E+01  0.250049792E+01
   C -0.232469426E+03 -0.109649268E+04  0.249979699E+01
   C -0.344500182E+01  0.574400373E+00  0.249949873E+01
   C  0.114364513E+01  0.666025004E+00  0.249998602E+01
   H -0.621923903E+01  0.120044591E+02  0.249460985E+01
   H  0.593953267E+01  0.899773078E+01  0.249519337E+01
   H -0.151932971E+02 -0.123371908E+01  0.249301966E+01
   H  0.151882424E+02  0.422242298E+01  0.249534136E+01
  Xx  0.165488959E+03 -0.179524571E+03  0.249959675E+01
    11
 # iter = 23000  time[fs]=23.00000
   N -0.248412173E+01 -0.358135741E+01  0.249996336E+01
   N  0.236938043E+01 -0.484029723E+01  0.249991818E+01
   C -0.233072387E+00  0.329498229E+01  0.250050731E+01
   C -0.235077821E+03 -0.110877314E+04  0.249979469E+01
   C -0.347716915E+01  0.581579239E+00  0.249949222E+01
   C  0.114972253E+01  0.676602693E+00  0.249998934E+01
   H -0.629057029E+01  0.121441541E+02  0.249451659E+01
   H  0.600909107E+01  0.910080843E+01  0.249510257E+01
   H -0.153696181E+02 -0.125107506E+01  0.249290370E+01
   H  0.153562603E+02  0.427231584E+01  0.249526525E+01
  Xx  0.167332973E+03 -0.181546964E+03  0.249959210E+01
    11
 # iter = 23250  time[fs]=23.25000
   N -0.250833871E+01 -0.361462304E+01  0.249996315E+01
   N  0.239274126E+01 -0.488913474E+01  0.249992001E+01
   C -0.227606024E+00  0.332697339E+01  0.250051643E+01
   C -0.237686217E+03 -0.112105360E+04  0.249979239E+01
   C -0.350942263E+01  0.588758191E+00  0.249948500E+01
   C  0.115588468E+01  0.687145434E+00  0.249999200E+01
   H -0.636203220E+01  0.122840725E+02  0.249442332E+01
   H  0.607881105E+01  0.920412567E+01  0.249501176E+01
   H -0.155461491E+02 -0.126847253E+01  0.249278775E+01
   H  0.155244896E+02  0.432220871E+01  0.249518914E+01
  Xx  0.169176987E+03 -0.183569357E+03  0.249958745E+01
    11
 # iter = 23500  time[fs]=23.50000
   N -0.253255225E+01 -0.364791620E+01  0.249996279E+01
   N  0.241614420E+01 -0.493801008E+01  0.249992221E+01
   C -0.222151770E+00  0.335905579E+01  0.250052611E+01
   C -0.240294613E+03 -0.113333407E+04  0.249979009E+01
   C -0.354171011E+01  0.595924319E+00  0.249947807E+01
   C  0.116209442E+01  0.697681882E+00  0.249999543E+01
   H -0.643362155E+01  0.124242088E+02  0.249433005E+01
   H  0.614868730E+01  0.930767675E+01  0.249492095E+01
   H -0.157228848E+02 -0.128591066E+01  0.249267179E+01
   H  0.156929259E+02  0.437210158E+01  0.249511303E+01
  Xx  0.171021000E+03 -0.185591751E+03  0.249958280E+01
    11
 # iter = 23750  time[fs]=23.75000
   N -0.255673932E+01 -0.368128697E+01  0.249996286E+01
   N  0.243961691E+01 -0.498698359E+01  0.249992492E+01
   C -0.216706009E+00  0.339118329E+01  0.250053538E+01
   C -0.242903008E+03 -0.114561453E+04  0.249978779E+01
   C -0.357408062E+01  0.603117886E+00  0.249947110E+01
   C  0.116837756E+01  0.708147832E+00  0.249999755E+01
   H -0.650533725E+01  0.125645604E+02  0.249423678E+01
   H  0.621871907E+01  0.941145783E+01  0.249483015E+01
   H -0.158998207E+02 -0.130338880E+01  0.249255584E+01
   H  0.158615658E+02  0.442199445E+01  0.249503692E+01
  Xx  0.172865014E+03 -0.187614144E+03  0.249957815E+01
    11
 # iter = 24000  time[fs]=24.00000
   N -0.258089340E+01 -0.371477482E+01  0.249996314E+01
   N  0.246317055E+01 -0.503601912E+01  0.249992717E+01
   C -0.211254219E+00  0.342341746E+01  0.250054469E+01
   C -0.245511404E+03 -0.115789499E+04  0.249978549E+01
   C -0.360647106E+01  0.610279113E+00  0.249946362E+01
   C  0.117472412E+01  0.718623565E+00  0.250000017E+01
   H -0.657717542E+01  0.127051216E+02  0.249414352E+01
   H  0.628889897E+01  0.951546305E+01  0.249473934E+01
   H -0.160769529E+02 -0.132090574E+01  0.249243988E+01
   H  0.160304053E+02  0.447188758E+01  0.249496082E+01
  Xx  0.174709028E+03 -0.189636537E+03  0.249957350E+01
    11
 # iter = 24250  time[fs]=24.25000
   N -0.260501753E+01 -0.374836618E+01  0.249996335E+01
   N  0.248679965E+01 -0.508503253E+01  0.249992937E+01
   C -0.205794268E+00  0.345569622E+01  0.250055443E+01
   C -0.248119799E+03 -0.117017545E+04  0.249978319E+01
   C -0.363894243E+01  0.617458495E+00  0.249945689E+01
   C  0.118113141E+01  0.729014246E+00  0.250000267E+01
   H -0.664913448E+01  0.128458872E+02  0.249405025E+01
   H  0.635922629E+01  0.961969204E+01  0.249464853E+01
   H -0.162542752E+02 -0.133846063E+01  0.249232392E+01
   H  0.161994408E+02  0.452178089E+01  0.249488471E+01
  Xx  0.176553042E+03 -0.191658930E+03  0.249956885E+01
    11
 # iter = 24500  time[fs]=24.50000
   N -0.262912132E+01 -0.378200154E+01  0.249996340E+01
   N  0.251047559E+01 -0.513401902E+01  0.249993217E+01
   C -0.200346015E+00  0.348807958E+01  0.250056378E+01
   C -0.250728195E+03 -0.118245591E+04  0.249978089E+01
   C -0.367145090E+01  0.624620829E+00  0.249945007E+01
   C  0.118759954E+01  0.739406693E+00  0.250000467E+01
   H -0.672121122E+01  0.129868527E+02  0.249395698E+01
   H  0.642969744E+01  0.972414341E+01  0.249455772E+01
   H -0.164317839E+02 -0.135605285E+01  0.249220797E+01
   H  0.163686716E+02  0.457167419E+01  0.249480860E+01
  Xx  0.178397056E+03 -0.193681323E+03  0.249956420E+01
    11
 # iter = 24750  time[fs]=24.75000
   N -0.265322908E+01 -0.381563088E+01  0.249996382E+01
   N  0.253415146E+01 -0.518305646E+01  0.249993491E+01
   C -0.194871553E+00  0.352052584E+01  0.250057394E+01
   C -0.253336591E+03 -0.119473638E+04  0.249977859E+01
   C -0.370401381E+01  0.631782523E+00  0.249944213E+01
   C  0.119412246E+01  0.749714287E+00  0.250000783E+01
   H -0.679340491E+01  0.131280165E+02  0.249386371E+01
   H  0.650031267E+01  0.982881469E+01  0.249446692E+01
   H -0.166094787E+02 -0.137368234E+01  0.249209201E+01
   H  0.165380918E+02  0.462156732E+01  0.249473249E+01
  Xx  0.180241069E+03 -0.195703717E+03  0.249955955E+01
    11
 # iter = 25000  time[fs]=25.00000
   N -0.267737082E+01 -0.384923965E+01  0.249996423E+01
   N  0.255780025E+01 -0.523218377E+01  0.249993705E+01
   C -0.189420199E+00  0.355303041E+01  0.250058348E+01
   C -0.255944986E+03 -0.120701684E+04  0.249977629E+01
   C -0.373665952E+01  0.638930336E+00  0.249943514E+01
   C  0.120070402E+01  0.759981044E+00  0.250001008E+01
   H -0.686571364E+01  0.132693752E+02  0.249377044E+01
   H  0.657107096E+01  0.993370184E+01  0.249437611E+01
   H -0.167873528E+02 -0.139134867E+01  0.249197606E+01
   H  0.167076983E+02  0.467146020E+01  0.249465638E+01
  Xx  0.182085083E+03 -0.197726110E+03  0.249955490E+01
    11
 # iter = 25250  time[fs]=25.25000
   N -0.270155958E+01 -0.388284897E+01  0.249996410E+01
   N  0.258142940E+01 -0.528136255E+01  0.249993950E+01
   C -0.183946535E+00  0.358562401E+01  0.250059280E+01
   C -0.258553382E+03 -0.121929730E+04  0.249977399E+01
   C -0.376930811E+01  0.646086805E+00  0.249942790E+01
   C  0.120735883E+01  0.770181061E+00  0.250001253E+01
   H -0.693813447E+01  0.134109246E+02  0.249367718E+01
   H  0.664196960E+01  0.100387990E+02  0.249428530E+01
   H -0.169654043E+02 -0.140905120E+01  0.249186010E+01
   H  0.168774855E+02  0.472135206E+01  0.249458028E+01
  Xx  0.183929097E+03 -0.199748503E+03  0.249955025E+01
    11
 # iter = 25500  time[fs]=25.50000
   N -0.272578793E+01 -0.391651384E+01  0.249996404E+01
   N  0.260504028E+01 -0.533053680E+01  0.249994243E+01
   C -0.178476929E+00  0.361824180E+01  0.250060306E+01
   C -0.261161778E+03 -0.123157776E+04  0.249977169E+01
   C -0.380205100E+01  0.653232563E+00  0.249942010E+01
   C  0.121406712E+01  0.780318991E+00  0.250001502E+01
   H -0.701066549E+01  0.135526608E+02  0.249358391E+01
   H  0.671300647E+01  0.101441024E+02  0.249419449E+01
   H -0.171436268E+02 -0.142678876E+01  0.249174414E+01
   H  0.170474503E+02  0.477124326E+01  0.249450417E+01
  Xx  0.185773111E+03 -0.201770896E+03  0.249954560E+01
    11
 # iter = 25750  time[fs]=25.75000
   N -0.275004070E+01 -0.395028948E+01  0.249996458E+01
   N  0.262863133E+01 -0.537968952E+01  0.249994520E+01
   C -0.173018299E+00  0.365097236E+01  0.250061205E+01
   C -0.263770173E+03 -0.124385822E+04  0.249976939E+01
   C -0.383480479E+01  0.660383530E+00  0.249941360E+01
   C  0.122084647E+01  0.790402729E+00  0.250001674E+01
   H -0.708330329E+01  0.136945795E+02  0.249349064E+01
   H  0.678417590E+01  0.102496061E+02  0.249410369E+01
   H -0.173220180E+02 -0.144456031E+01  0.249162819E+01
   H  0.172175924E+02  0.482113445E+01  0.249442806E+01
  Xx  0.187617125E+03 -0.203793289E+03  0.249954095E+01
    11
 # iter = 26000  time[fs]=26.00000
   N -0.277429838E+01 -0.398417974E+01  0.249996523E+01
   N  0.265224398E+01 -0.542887278E+01  0.249994788E+01
   C -0.167543455E+00  0.368372710E+01  0.250062180E+01
   C -0.266378569E+03 -0.125613868E+04  0.249976709E+01
   C -0.386761530E+01  0.667541068E+00  0.249940618E+01
   C  0.122769358E+01  0.800436934E+00  0.250001928E+01
   H -0.715604531E+01  0.138366775E+02  0.249339737E+01
   H  0.685547455E+01  0.103553065E+02  0.249401288E+01
   H -0.175005781E+02 -0.146236505E+01  0.249151223E+01
   H  0.173879058E+02  0.487102563E+01  0.249435195E+01
  Xx  0.189461138E+03 -0.205815683E+03  0.249953630E+01
    11
 # iter = 26250  time[fs]=26.25000
   N -0.279853702E+01 -0.401813626E+01  0.249996547E+01
   N  0.267592546E+01 -0.547814331E+01  0.249995029E+01
   C -0.162101558E+00  0.371658447E+01  0.250063098E+01
   C -0.268986965E+03 -0.126841915E+04  0.249976479E+01
   C -0.390046255E+01  0.674684781E+00  0.249939883E+01
   C  0.123457767E+01  0.810422162E+00  0.250002071E+01
   H -0.722888828E+01  0.139789498E+02  0.249330411E+01
   H  0.692689703E+01  0.104612000E+02  0.249392207E+01
   H -0.176793025E+02 -0.148020219E+01  0.249139627E+01
   H  0.175583879E+02  0.492091682E+01  0.249427584E+01
  Xx  0.191305152E+03 -0.207838076E+03  0.249953165E+01
    11
 # iter = 26500  time[fs]=26.50000
   N -0.282273500E+01 -0.405209731E+01  0.249996552E+01
   N  0.269969034E+01 -0.552746898E+01  0.249995322E+01
   C -0.156635640E+00  0.374949353E+01  0.250063987E+01
   C -0.271595360E+03 -0.128069961E+04  0.249976249E+01
   C -0.393334608E+01  0.681857972E+00  0.249939261E+01
   C  0.124154932E+01  0.820365232E+00  0.250002239E+01
   H -0.730183131E+01  0.141213938E+02  0.249321084E+01
   H  0.699844186E+01  0.105672815E+02  0.249383126E+01
   H -0.178581868E+02 -0.149807136E+01  0.249128032E+01
   H  0.177290354E+02  0.497080801E+01  0.249419974E+01
  Xx  0.193149166E+03 -0.209860469E+03  0.249952700E+01
    11
 # iter = 26750  time[fs]=26.75000
   N -0.284689248E+01 -0.408602895E+01  0.249996597E+01
   N  0.272353441E+01 -0.557677423E+01  0.249995625E+01
   C -0.151206506E+00  0.378246971E+01  0.250064957E+01
   C -0.274203756E+03 -0.129298007E+04  0.249976019E+01
   C -0.396629062E+01  0.688998719E+00  0.249938462E+01
   C  0.124856103E+01  0.830255861E+00  0.250002512E+01
   H -0.737487384E+01  0.142640067E+02  0.249311757E+01
   H  0.707010831E+01  0.106735494E+02  0.249374046E+01
   H -0.180372285E+02 -0.151597201E+01  0.249116436E+01
   H  0.178998430E+02  0.502069920E+01  0.249412363E+01
  Xx  0.194993180E+03 -0.211882862E+03  0.249952235E+01
    11
 # iter = 27000  time[fs]=27.00000
   N -0.287102958E+01 -0.411993429E+01  0.249996685E+01
   N  0.274743682E+01 -0.562605074E+01  0.249995900E+01
   C -0.145752094E+00  0.381549531E+01  0.250065843E+01
   C -0.276812152E+03 -0.130526053E+04  0.249975788E+01
   C -0.399926543E+01  0.696168307E+00  0.249937777E+01
   C  0.125562641E+01  0.840084661E+00  0.250002699E+01
   H -0.744801435E+01  0.144067867E+02  0.249302430E+01
   H  0.714189659E+01  0.107800017E+02  0.249364965E+01
   H -0.182164215E+02 -0.153390365E+01  0.249104841E+01
   H  0.180708104E+02  0.507059039E+01  0.249404752E+01
  Xx  0.196837194E+03 -0.213905255E+03  0.249951770E+01
    11
 # iter = 27250  time[fs]=27.25000
   N -0.289517176E+01 -0.415386180E+01  0.249996711E+01
   N  0.277135801E+01 -0.567536958E+01  0.249996161E+01
   C -0.140324358E+00  0.384858650E+01  0.250066793E+01
   C -0.279420547E+03 -0.131754099E+04  0.249975558E+01
   C -0.403229990E+01  0.703322716E+00  0.249937126E+01
   C  0.126275921E+01  0.849871312E+00  0.250002954E+01
   H -0.752125105E+01  0.145497305E+02  0.249293104E+01
   H  0.721380476E+01  0.108866372E+02  0.249355884E+01
   H -0.183957655E+02 -0.155186569E+01  0.249093245E+01
   H  0.182419367E+02  0.512048158E+01  0.249397141E+01
  Xx  0.198681207E+03 -0.215927649E+03  0.249951305E+01
    11
 # iter = 27500  time[fs]=27.50000
   N -0.291933879E+01 -0.418787645E+01  0.249996699E+01
   N  0.279526597E+01 -0.572476218E+01  0.249996460E+01
   C -0.134891100E+00  0.388172183E+01  0.250067698E+01
   C -0.282028943E+03 -0.132982146E+04  0.249975328E+01
   C -0.406534195E+01  0.710485582E+00  0.249936310E+01
   C  0.126993183E+01  0.859596309E+00  0.250003167E+01
   H -0.759458296E+01  0.146928344E+02  0.249283777E+01
   H  0.728583186E+01  0.109934531E+02  0.249346803E+01
   H -0.185752603E+02 -0.156985777E+01  0.249081649E+01
   H  0.184132152E+02  0.517037277E+01  0.249389530E+01
  Xx  0.200525221E+03 -0.217950042E+03  0.249950840E+01
    11
 # iter = 27750  time[fs]=27.75000
   N -0.294354378E+01 -0.422199810E+01  0.249996764E+01
   N  0.281914434E+01 -0.577419630E+01  0.249996790E+01
   C -0.129460309E+00  0.391493919E+01  0.250068596E+01
   C -0.284637339E+03 -0.134210192E+04  0.249975098E+01
   C -0.409844411E+01  0.717658072E+00  0.249935616E+01
   C  0.127714842E+01  0.869290670E+00  0.250003336E+01
   H -0.766800836E+01  0.148360954E+02  0.249274450E+01
   H  0.735797579E+01  0.111004462E+02  0.249337723E+01
   H -0.187549002E+02 -0.158787927E+01  0.249070054E+01
   H  0.185846448E+02  0.522026395E+01  0.249381920E+01
  Xx  0.202369235E+03 -0.219972435E+03  0.249950375E+01
    11
 # iter = 28000  time[fs]=28.00000
   N -0.296779411E+01 -0.425619572E+01  0.249996858E+01
   N  0.284297647E+01 -0.582362492E+01  0.249997081E+01
   C -0.124046009E+00  0.394818754E+01  0.250069566E+01
   C -0.287245734E+03 -0.135438238E+04  0.249974868E+01
   C -0.413155427E+01  0.724809584E+00  0.249934897E+01
   C  0.128444477E+01  0.878928358E+00  0.250003644E+01
   H -0.774152557E+01  0.149795116E+02  0.249265123E+01
   H  0.743023572E+01  0.112076131E+02  0.249328642E+01
   H -0.189346821E+02 -0.160592991E+01  0.249058458E+01
   H  0.187562253E+02  0.527015514E+01  0.249374309E+01
  Xx  0.204213249E+03 -0.221994828E+03  0.249949911E+01
    11
 # iter = 28250  time[fs]=28.25000
   N -0.299208422E+01 -0.429041530E+01  0.249996921E+01
   N  0.286676301E+01 -0.587303526E+01  0.249997348E+01
   C -0.118612815E+00  0.398153862E+01  0.250070473E+01
   C -0.289854130E+03 -0.136666284E+04  0.249974638E+01
   C -0.416471519E+01  0.731984824E+00  0.249934090E+01
   C  0.129174985E+01  0.888524777E+00  0.250003811E+01
   H -0.781513222E+01  0.151230800E+02  0.249255797E+01
   H  0.750260737E+01  0.113149506E+02  0.249319561E+01
   H -0.191146061E+02 -0.162400900E+01  0.249046863E+01
   H  0.189279533E+02  0.532004633E+01  0.249366698E+01
  Xx  0.206057263E+03 -0.224017221E+03  0.249949446E+01
    11
 # iter = 28500  time[fs]=28.50000
   N -0.301638937E+01 -0.432461094E+01  0.249996966E+01
   N  0.289055538E+01 -0.592246519E+01  0.249997634E+01
   C -0.113196345E+00  0.401490413E+01  0.250071405E+01
   C -0.292462526E+03 -0.137894330E+04  0.249974408E+01
   C -0.419791896E+01  0.739137655E+00  0.249933408E+01
   C  0.129912898E+01  0.898082826E+00  0.250004027E+01
   H -0.788882717E+01  0.152667982E+02  0.249246470E+01
   H  0.757508906E+01  0.114224563E+02  0.249310481E+01
   H -0.192946695E+02 -0.164211619E+01  0.249035267E+01
   H  0.190998235E+02  0.536993752E+01  0.249359087E+01
  Xx  0.207901276E+03 -0.226039615E+03  0.249948981E+01
    11
 # iter = 28750  time[fs]=28.75000
   N -0.304067738E+01 -0.435876787E+01  0.249997062E+01
   N  0.291440351E+01 -0.597195769E+01  0.249997954E+01
   C -0.107774981E+00  0.404838233E+01  0.250072215E+01
   C -0.295070921E+03 -0.139122377E+04  0.249974178E+01
   C -0.423114068E+01  0.746306908E+00  0.249932646E+01
   C  0.130654208E+01  0.907608186E+00  0.250004287E+01
   H -0.796260779E+01  0.154106631E+02  0.249237143E+01
   H  0.764767695E+01  0.115301270E+02  0.249301400E+01
   H -0.194748664E+02 -0.166025070E+01  0.249023671E+01
   H  0.192718358E+02  0.541982871E+01  0.249351476E+01
  Xx  0.209745290E+03 -0.228062008E+03  0.249948516E+01
    11
 # iter = 29000  time[fs]=29.00000
   N -0.306492604E+01 -0.439292075E+01  0.249997214E+01
   N  0.293831727E+01 -0.602149452E+01  0.249998282E+01
   C -0.102361212E+00  0.408187463E+01  0.250073046E+01
   C -0.297679317E+03 -0.140350423E+04  0.249973948E+01
   C -0.426443557E+01  0.753461738E+00  0.249931849E+01
   C  0.131399619E+01  0.917070326E+00  0.250004439E+01
   H -0.803647439E+01  0.155546729E+02  0.249227816E+01
   H  0.772037251E+01  0.116379615E+02  0.249292319E+01
   H -0.196551964E+02 -0.167841213E+01  0.249012076E+01
   H  0.194439902E+02  0.546971990E+01  0.249343866E+01
  Xx  0.211589304E+03 -0.230084401E+03  0.249948051E+01
    11
 # iter = 29250  time[fs]=29.25000
   N -0.308913762E+01 -0.442713571E+01  0.249997346E+01
   N  0.296230368E+01 -0.607101903E+01  0.249998551E+01
   C -0.969649320E-01  0.411544741E+01  0.250073872E+01
   C -0.300287712E+03 -0.141578469E+04  0.249973718E+01
   C -0.429772704E+01  0.760617943E+00  0.249931221E+01
   C  0.132150053E+01  0.926517695E+00  0.250004702E+01
   H -0.811042554E+01  0.156988248E+02  0.249218490E+01
   H  0.779317451E+01  0.117459581E+02  0.249283238E+01
   H -0.198356591E+02 -0.169659994E+01  0.249000480E+01
   H  0.196162847E+02  0.551961109E+01  0.249336255E+01
  Xx  0.213433318E+03 -0.232106794E+03  0.249947586E+01
    11
 # iter = 29500  time[fs]=29.50000
   N -0.311332169E+01 -0.446144450E+01  0.249997447E+01
   N  0.298636189E+01 -0.612052249E+01  0.249998834E+01
   C -0.915355869E-01  0.414905032E+01  0.250074662E+01
   C -0.302896108E+03 -0.142806515E+04  0.249973488E+01
   C -0.433107264E+01  0.767769424E+00  0.249930398E+01
   C  0.132904719E+01  0.935902384E+00  0.250004928E+01
   H -0.818446102E+01  0.158431172E+02  0.249209163E+01
   H  0.786608245E+01  0.118541155E+02  0.249274158E+01
   H -0.200162480E+02 -0.171481372E+01  0.248988884E+01
   H  0.197887130E+02  0.556950227E+01  0.249328644E+01
  Xx  0.215277332E+03 -0.234129187E+03  0.249947121E+01
    11
 # iter = 29750  time[fs]=29.75000
   N -0.313748605E+01 -0.449583222E+01  0.249997580E+01
   N  0.301045979E+01 -0.617005251E+01  0.249999157E+01
   C -0.861452895E-01  0.418273510E+01  0.250075557E+01
   C -0.305504504E+03 -0.144034561E+04  0.249973258E+01
   C -0.436442114E+01  0.774912179E+00  0.249929627E+01
   C  0.133663006E+01  0.945266704E+00  0.250005092E+01
   H -0.825857808E+01  0.159875472E+02  0.249199836E+01
   H  0.793909448E+01  0.119624326E+02  0.249265077E+01
   H -0.201969613E+02 -0.173305305E+01  0.248977289E+01
   H  0.199612745E+02  0.561939346E+01  0.249321033E+01
  Xx  0.217121345E+03 -0.236151581E+03  0.249946656E+01
    11
 # iter = 30000  time[fs]=30.00000
   N -0.316166411E+01 -0.453025730E+01  0.249997736E+01
   N  0.303455514E+01 -0.621963386E+01  0.249999488E+01
   C -0.807171714E-01  0.421645008E+01  0.250076297E+01
   C -0.308112899E+03 -0.145262608E+04  0.249973028E+01
   C -0.439781315E+01  0.782061508E+00  0.249928966E+01
   C  0.134426413E+01  0.954597882E+00  0.250005348E+01
   H -0.833277507E+01  0.161321128E+02  0.249190509E+01
   H  0.801220915E+01  0.120709062E+02  0.249255996E+01
   H -0.203777989E+02 -0.175131763E+01  0.248965693E+01
   H  0.201339692E+02  0.566928465E+01  0.249313422E+01
  Xx  0.218965359E+03 -0.238173974E+03  0.249946191E+01
    11
 # iter = 30250  time[fs]=30.25000
   N -0.318589854E+01 -0.456466754E+01  0.249997872E+01
   N  0.305861638E+01 -0.626925465E+01  0.249999804E+01
   C -0.753106654E-01  0.425024867E+01  0.250077132E+01
   C -0.310721295E+03 -0.146490654E+04  0.249972798E+01
   C -0.443124819E+01  0.789184903E+00  0.249928077E+01
   C  0.135192382E+01  0.963860609E+00  0.250005456E+01
   H -0.840705200E+01  0.162768116E+02  0.249181182E+01
   H  0.808542422E+01  0.121795341E+02  0.249246915E+01
   H -0.205587608E+02 -0.176960701E+01  0.248954098E+01
   H  0.203067961E+02  0.571917584E+01  0.249305812E+01
  Xx  0.220809373E+03 -0.240196367E+03  0.249945726E+01
    11
 # iter = 30500  time[fs]=30.50000
   N -0.321019183E+01 -0.459903315E+01  0.249997983E+01
   N  0.308262463E+01 -0.631888079E+01  0.250000124E+01
   C -0.698948543E-01  0.428407375E+01  0.250077960E+01
   C -0.313329691E+03 -0.147718700E+04  0.249972568E+01
   C -0.446470683E+01  0.796325715E+00  0.249927386E+01
   C  0.135962616E+01  0.973115303E+00  0.250005656E+01
   H -0.848140709E+01  0.164216437E+02  0.249171856E+01
   H  0.815873714E+01  0.122883128E+02  0.249237835E+01
   H -0.207398435E+02 -0.178792065E+01  0.248942502E+01
   H  0.204797486E+02  0.576906703E+01  0.249298201E+01
  Xx  0.222653387E+03 -0.242218760E+03  0.249945261E+01
    11
 # iter = 30750  time[fs]=30.75000
   N -0.323452145E+01 -0.463338253E+01  0.249998089E+01
   N  0.310658538E+01 -0.636849077E+01  0.250000458E+01
   C -0.644645535E-01  0.431795984E+01  0.250078753E+01
   C -0.315938086E+03 -0.148946746E+04  0.249972338E+01
   C -0.449822324E+01  0.803425833E+00  0.249926648E+01
   C  0.136737355E+01  0.982318085E+00  0.250005927E+01
   H -0.855583771E+01  0.165666061E+02  0.249162529E+01
   H  0.823214655E+01  0.123972390E+02  0.249228754E+01
   H -0.209210417E+02 -0.180625807E+01  0.248930906E+01
   H  0.206528253E+02  0.581895822E+01  0.249290590E+01
  Xx  0.224497401E+03 -0.244241153E+03  0.249944796E+01
    11
 # iter = 31000  time[fs]=31.00000
   N -0.325887015E+01 -0.466777803E+01  0.249998233E+01
   N  0.313054099E+01 -0.641810068E+01  0.250000795E+01
   C -0.590455242E-01  0.435188822E+01  0.250079583E+01
   C -0.318546482E+03 -0.150174792E+04  0.249972108E+01
   C -0.453175134E+01  0.810538199E+00  0.249925807E+01
   C  0.137515668E+01  0.991469116E+00  0.250006066E+01
   H -0.863034383E+01  0.167116931E+02  0.249153202E+01
   H  0.830564936E+01  0.125063096E+02  0.249219673E+01
   H -0.211023553E+02 -0.182461881E+01  0.248919311E+01
   H  0.208260264E+02  0.586884941E+01  0.249282979E+01
  Xx  0.226341414E+03 -0.246263547E+03  0.249944331E+01
    11
 # iter = 31250  time[fs]=31.25000
   N -0.328321807E+01 -0.470225502E+01  0.249998389E+01
   N  0.315452872E+01 -0.646776320E+01  0.250001095E+01
   C -0.536135096E-01  0.438585673E+01  0.250080314E+01
   C -0.321154878E+03 -0.151402838E+04  0.249971878E+01
   C -0.456533224E+01  0.817630853E+00  0.249925153E+01
   C  0.138297892E+01  0.100059324E+01  0.250006319E+01
   H -0.870492393E+01  0.168569045E+02  0.249143875E+01
   H  0.837924544E+01  0.126155224E+02  0.249210592E+01
   H -0.212837844E+02 -0.184300232E+01  0.248907715E+01
   H  0.209993518E+02  0.591874059E+01  0.249275368E+01
  Xx  0.228185428E+03 -0.248285940E+03  0.249943866E+01
    11
 # iter = 31500  time[fs]=31.50000
   N -0.330753277E+01 -0.473681328E+01  0.249998491E+01
   N  0.317855862E+01 -0.651748398E+01  0.250001374E+01
   C -0.481883503E-01  0.441987180E+01  0.250081133E+01
   C -0.323763273E+03 -0.152630885E+04  0.249971648E+01
   C -0.459891113E+01  0.824707837E+00  0.249924348E+01
   C  0.139084023E+01  0.100965298E+01  0.250006522E+01
   H -0.877957515E+01  0.170022401E+02  0.249134549E+01
   H  0.845293344E+01  0.127248757E+02  0.249201512E+01
   H -0.214653290E+02 -0.186140818E+01  0.248896120E+01
   H  0.211727963E+02  0.596863178E+01  0.249267758E+01
  Xx  0.230029442E+03 -0.250308333E+03  0.249943401E+01
    11
 # iter = 31750  time[fs]=31.75000
   N -0.333179029E+01 -0.477142423E+01  0.249998582E+01
   N  0.320265374E+01 -0.656720681E+01  0.250001685E+01
   C -0.427725747E-01  0.445392656E+01  0.250081849E+01
   C -0.326371669E+03 -0.153858931E+04  0.249971418E+01
   C -0.463254053E+01  0.831798940E+00  0.249923531E+01
   C  0.139872951E+01  0.101867397E+01  0.250006690E+01
   H -0.885429743E+01  0.171476957E+02  0.249125222E+01
   H  0.852671039E+01  0.128343668E+02  0.249192431E+01
   H -0.216469882E+02 -0.187983597E+01  0.248884524E+01
   H  0.213463563E+02  0.601852297E+01  0.249260147E+01
  Xx  0.231873456E+03 -0.252330726E+03  0.249942936E+01
    11
 # iter = 32000  time[fs]=32.00000
   N -0.335599640E+01 -0.480603981E+01  0.249998717E+01
   N  0.322682926E+01 -0.661690010E+01  0.250001996E+01
   C -0.373542232E-01  0.448803512E+01  0.250082560E+01
   C -0.328980065E+03 -0.155086977E+04  0.249971188E+01
   C -0.466619109E+01  0.838851893E+00  0.249922836E+01
   C  0.140666042E+01  0.102765454E+01  0.250006995E+01
   H -0.892909077E+01  0.172932668E+02  0.249115895E+01
   H  0.860057615E+01  0.129439955E+02  0.249183350E+01
   H -0.218287554E+02 -0.189828549E+01  0.248872928E+01
   H  0.215200318E+02  0.606841416E+01  0.249252536E+01
  Xx  0.233717470E+03 -0.254353119E+03  0.249942471E+01
    11
 # iter = 32250  time[fs]=32.25000
   N -0.338018276E+01 -0.484062289E+01  0.249998866E+01
   N  0.325105273E+01 -0.666660183E+01  0.250002281E+01
   C -0.319486731E-01  0.452219026E+01  0.250083283E+01
   C -0.331588460E+03 -0.156315023E+04  0.249970958E+01
   C -0.469989088E+01  0.845928123E+00  0.249921998E+01
   C  0.141463181E+01  0.103655929E+01  0.250007160E+01
   H -0.900395424E+01  0.174389533E+02  0.249106568E+01
   H  0.867453009E+01  0.130537606E+02  0.249174269E+01
   H -0.220106292E+02 -0.191675653E+01  0.248861333E+01
   H  0.216938227E+02  0.611830535E+01  0.249244925E+01
  Xx  0.235561483E+03 -0.256375513E+03  0.249942006E+01
    11
 # iter = 32500  time[fs]=32.50000
   N -0.340438691E+01 -0.487518584E+01  0.249998980E+01
   N  0.327527562E+01 -0.671636359E+01  0.250002560E+01
   C -0.265394962E-01  0.455635650E+01  0.250083918E+01
   C -0.334196856E+03 -0.157543069E+04  0.249970728E+01
   C -0.473363290E+01  0.852965606E+00  0.249921223E+01
   C  0.142262367E+01  0.104543670E+01  0.250007324E+01
   H -0.907888661E+01  0.175847552E+02  0.249097242E+01
   H  0.874857136E+01  0.131636590E+02  0.249165189E+01
   H -0.221926095E+02 -0.193524897E+01  0.248849737E+01
   H  0.218677291E+02  0.616819654E+01  0.249237314E+01
  Xx  0.237405497E+03 -0.258397906E+03  0.249941541E+01
    11
 # iter = 32750  time[fs]=32.75000
   N -0.342863716E+01 -0.490978104E+01  0.249999087E+01
   N  0.329946845E+01 -0.676618440E+01  0.250002852E+01
   C -0.211457068E-01  0.459058662E+01  0.250084644E+01
   C -0.336805252E+03 -0.158771116E+04  0.249970498E+01
   C -0.476739168E+01  0.860012111E+00  0.249920608E+01
   C  0.143067131E+01  0.105424424E+01  0.250007583E+01
   H -0.915388623E+01  0.177306727E+02  0.249087915E+01
   H  0.882269835E+01  0.132736906E+02  0.249156108E+01
   H -0.223746965E+02 -0.195376248E+01  0.248838142E+01
   H  0.220417510E+02  0.621808773E+01  0.249229704E+01
  Xx  0.239249511E+03 -0.260420299E+03  0.249941076E+01
    11
 # iter = 33000  time[fs]=33.00000
   N -0.345294519E+01 -0.494444473E+01  0.249999243E+01
   N  0.332362336E+01 -0.681601472E+01  0.250003166E+01
   C -0.157597026E-01  0.462481597E+01  0.250085267E+01
   C -0.339413647E+03 -0.159999162E+04  0.249970268E+01
   C -0.480121218E+01  0.867039963E+00  0.249919796E+01
   C  0.143874856E+01  0.106299853E+01  0.250007705E+01
   H -0.922895247E+01  0.178767056E+02  0.249078588E+01
   H  0.889690971E+01  0.133838552E+02  0.249147027E+01
   H -0.225568900E+02 -0.197229668E+01  0.248826546E+01
   H  0.222158841E+02  0.626797891E+01  0.249222093E+01
  Xx  0.241093525E+03 -0.262442692E+03  0.249940611E+01
    11
 # iter = 33250  time[fs]=33.25000
   N -0.347731265E+01 -0.497918036E+01  0.249999409E+01
   N  0.334774019E+01 -0.686581379E+01  0.250003420E+01
   C -0.103820896E-01  0.465910432E+01  0.250085920E+01
   C -0.342022043E+03 -0.161227208E+04  0.249970038E+01
   C -0.483502486E+01  0.874066158E+00  0.249919123E+01
   C  0.144684554E+01  0.107171361E+01  0.250007963E+01
   H -0.930408532E+01  0.180228519E+02  0.249069261E+01
   H  0.897120546E+01  0.134941494E+02  0.249137947E+01
   H -0.227391880E+02 -0.199085115E+01  0.248814950E+01
   H  0.223901239E+02  0.631787071E+01  0.249214482E+01
  Xx  0.242937539E+03 -0.264465085E+03  0.249940146E+01
    11
 # iter = 33500  time[fs]=33.50000
   N -0.350172557E+01 -0.501396533E+01  0.249999527E+01
   N  0.337183272E+01 -0.691560255E+01  0.250003648E+01
   C -0.501186330E-02  0.469342668E+01  0.250086548E+01
   C -0.344630439E+03 -0.162455254E+04  0.249969807E+01
   C -0.486889784E+01  0.881081701E+00  0.249918467E+01
   C  0.145500464E+01  0.108034572E+01  0.250008226E+01
   H -0.937928478E+01  0.181691053E+02  0.249059935E+01
   H  0.904558558E+01  0.136045725E+02  0.249128866E+01
   H -0.229215842E+02 -0.200942568E+01  0.248803355E+01
   H  0.225644703E+02  0.636776316E+01  0.249206871E+01
  Xx  0.244781552E+03 -0.266487479E+03  0.249939681E+01
    11
 # iter = 33750  time[fs]=33.75000
   N -0.352614522E+01 -0.504876003E+01  0.249999620E+01
   N  0.339592799E+01 -0.696545470E+01  0.250003895E+01
   C  0.344997993E-03  0.472778613E+01  0.250087105E+01
   C -0.347238834E+03 -0.163683300E+04  0.249969577E+01
   C -0.490277868E+01  0.888088276E+00  0.249917597E+01
   C  0.146316885E+01  0.108894532E+01  0.250008382E+01
   H -0.945455055E+01  0.183154652E+02  0.249050608E+01
   H  0.912004980E+01  0.137151238E+02  0.249119785E+01
   H -0.231040780E+02 -0.202802020E+01  0.248791759E+01
   H  0.227389232E+02  0.641765765E+01  0.249199260E+01
  Xx  0.246625566E+03 -0.268509872E+03  0.249939216E+01
    11
 # iter = 34000  time[fs]=34.00000
   N -0.355052393E+01 -0.508353159E+01  0.249999747E+01
   N  0.342005775E+01 -0.701537792E+01  0.250004162E+01
   C  0.569266747E-02  0.476220048E+01  0.250087759E+01
   C -0.349847230E+03 -0.164911347E+04  0.249969347E+01
   C -0.493670157E+01  0.895106619E+00  0.249917007E+01
   C  0.147137648E+01  0.109749026E+01  0.250008697E+01
   H -0.952987939E+01  0.184619318E+02  0.249041281E+01
   H  0.919459487E+01  0.138258000E+02  0.249110704E+01
   H -0.232866696E+02 -0.204663407E+01  0.248780163E+01
   H  0.229134827E+02  0.646755435E+01  0.249191650E+01
  Xx  0.248469580E+03 -0.270532265E+03  0.249938751E+01
    11
 # iter = 34250  time[fs]=34.25000
   N -0.357484240E+01 -0.511828216E+01  0.249999903E+01
   N  0.344425398E+01 -0.706529993E+01  0.250004413E+01
   C  0.110329497E-01  0.479664228E+01  0.250088285E+01
   C -0.352455625E+03 -0.166139393E+04  0.249969117E+01
   C -0.497066916E+01  0.902103783E+00  0.249916221E+01
   C  0.147962642E+01  0.110598528E+01  0.250008887E+01
   H -0.960527039E+01  0.186085049E+02  0.249031954E+01
   H  0.926921988E+01  0.139366005E+02  0.249101624E+01
   H -0.234693589E+02 -0.206526681E+01  0.248768568E+01
   H  0.230881488E+02  0.651745328E+01  0.249184039E+01
  Xx  0.250313594E+03 -0.272554658E+03  0.249938286E+01
    11
 # iter = 34500  time[fs]=34.50000
   N -0.359911397E+01 -0.515304454E+01  0.250000036E+01
   N  0.346852427E+01 -0.711517380E+01  0.250004631E+01
   C  0.163620103E-01  0.483111569E+01  0.250088890E+01
   C -0.355064021E+03 -0.167367439E+04  0.249968887E+01
   C -0.500465199E+01  0.909128082E+00  0.249915433E+01
   C  0.148787715E+01  0.111444669E+01  0.250009051E+01
   H -0.968072357E+01  0.187551846E+02  0.249022628E+01
   H  0.934392483E+01  0.140475249E+02  0.249092543E+01
   H -0.236521458E+02 -0.208391843E+01  0.248756972E+01
   H  0.232629215E+02  0.656735442E+01  0.249176428E+01
  Xx  0.252157608E+03 -0.274577051E+03  0.249937822E+01
    11
 # iter = 34750  time[fs]=34.75000
   N -0.362335563E+01 -0.518785796E+01  0.250000164E+01
   N  0.349283880E+01 -0.716505113E+01  0.250004854E+01
   C  0.216796511E-01  0.486562852E+01  0.250089442E+01
   C -0.357672417E+03 -0.168595485E+04  0.249968657E+01
   C -0.503869127E+01  0.916120855E+00  0.249914846E+01
   C  0.149618611E+01  0.112283970E+01  0.250009384E+01
   H -0.975623892E+01  0.189019709E+02  0.249013301E+01
   H  0.941870957E+01  0.141585707E+02  0.249083462E+01
   H -0.238350305E+02 -0.210258877E+01  0.248745377E+01
   H  0.234377966E+02  0.661725779E+01  0.249168817E+01
  Xx  0.254001621E+03 -0.276599445E+03  0.249937357E+01
    11
 # iter = 35000  time[fs]=35.00000
   N -0.364759031E+01 -0.522273880E+01  0.250000309E+01
   N  0.351716039E+01 -0.721500063E+01  0.250005102E+01
   C  0.269867281E-01  0.490015395E+01  0.250089988E+01
   C -0.360280812E+03 -0.169823531E+04  0.249968427E+01
   C -0.507273156E+01  0.923147741E+00  0.249914050E+01
   C  0.150451241E+01  0.113122003E+01  0.250009531E+01
   H -0.983181645E+01  0.190488638E+02  0.249003974E+01
   H  0.949357267E+01  0.142697364E+02  0.249074381E+01
   H -0.240180128E+02 -0.212127700E+01  0.248733781E+01
   H  0.236127695E+02  0.666716337E+01  0.249161206E+01
  Xx  0.255845635E+03 -0.278621838E+03  0.249936892E+01
    11
 # iter = 35250  time[fs]=35.25000
   N -0.367186801E+01 -0.525766779E+01  0.250000455E+01
   N  0.354147338E+01 -0.726501071E+01  0.250005340E+01
   C  0.322740883E-01  0.493473364E+01  0.250090574E+01
   C -0.362889208E+03 -0.171051578E+04  0.249968197E+01
   C -0.510681066E+01  0.930157202E+00  0.249913343E+01
   C  0.151285390E+01  0.113954620E+01  0.250009810E+01
   H -0.990745509E+01  0.191958603E+02  0.248994647E+01
   H  0.956851254E+01  0.143810219E+02  0.249065301E+01
   H -0.242010929E+02 -0.213998299E+01  0.248722185E+01
   H  0.237878401E+02  0.671707118E+01  0.249153596E+01
  Xx  0.257689649E+03 -0.280644231E+03  0.249936427E+01
    11
 # iter = 35500  time[fs]=35.50000
   N -0.369622784E+01 -0.529260522E+01  0.250000575E+01
   N  0.356576435E+01 -0.731502053E+01  0.250005519E+01
   C  0.375591258E-01  0.496932953E+01  0.250091053E+01
   C -0.365497604E+03 -0.172279624E+04  0.249967967E+01
   C -0.514090638E+01  0.937172986E+00  0.249912681E+01
   C  0.152124287E+01  0.114784230E+01  0.250010117E+01
   H -0.998315169E+01  0.193429547E+02  0.248985320E+01
   H  0.964352790E+01  0.144924274E+02  0.249056220E+01
   H -0.243842707E+02 -0.215870675E+01  0.248710590E+01
   H  0.239630084E+02  0.676698192E+01  0.249145985E+01
  Xx  0.259533663E+03 -0.282666624E+03  0.249935962E+01
    11
 # iter = 35750  time[fs]=35.75000
   N -0.372066444E+01 -0.532752336E+01  0.250000687E+01
   N  0.359001298E+01 -0.736499812E+01  0.250005696E+01
   C  0.428074655E-01  0.500398610E+01  0.250091608E+01
   C -0.368105999E+03 -0.173507670E+04  0.249967737E+01
   C -0.517504654E+01  0.944204012E+00  0.249911898E+01
   C  0.152963466E+01  0.115610800E+01  0.250010248E+01
   H -0.100589060E+02  0.194901469E+02  0.248975994E+01
   H  0.971861876E+01  0.146039528E+02  0.249047139E+01
   H -0.245675461E+02 -0.217744758E+01  0.248698994E+01
   H  0.241382743E+02  0.681689707E+01  0.249138374E+01
  Xx  0.261377677E+03 -0.284689017E+03  0.249935497E+01
    11
 # iter = 36000  time[fs]=36.00000
   N -0.374515260E+01 -0.536242857E+01  0.250000803E+01
   N  0.361421700E+01 -0.741497938E+01  0.250005889E+01
   C  0.480598093E-01  0.503867237E+01  0.250092086E+01
   C -0.370714395E+03 -0.174735716E+04  0.249967507E+01
   C -0.520921969E+01  0.951212273E+00  0.249911205E+01
   C  0.153805959E+01  0.116433099E+01  0.250010566E+01
   H -0.101347181E+02  0.196374367E+02  0.248966667E+01
   H  0.979378512E+01  0.147155981E+02  0.249038058E+01
   H -0.247509193E+02 -0.219620507E+01  0.248687399E+01
   H  0.243136380E+02  0.686681665E+01  0.249130763E+01
  Xx  0.263221690E+03 -0.286711411E+03  0.249935032E+01
    11
 # iter = 36250  time[fs]=36.25000
   N -0.376966089E+01 -0.539734327E+01  0.250000926E+01
   N  0.363842425E+01 -0.746502585E+01  0.250006095E+01
   C  0.532886124E-01  0.507338716E+01  0.250092611E+01
   C -0.373322791E+03 -0.175963762E+04  0.249967277E+01
   C -0.524342675E+01  0.958261991E+00  0.249910563E+01
   C  0.154651454E+01  0.117255345E+01  0.250010732E+01
   H -0.102105879E+02  0.197848242E+02  0.248957340E+01
   H  0.986902697E+01  0.148273632E+02  0.249028978E+01
   H -0.249343901E+02 -0.221497921E+01  0.248675803E+01
   H  0.244890994E+02  0.691674112E+01  0.249123152E+01
  Xx  0.265065704E+03 -0.288733804E+03  0.249934567E+01
    11
 # iter = 36500  time[fs]=36.50000
   N -0.379414844E+01 -0.543229180E+01  0.250001045E+01
   N  0.366267860E+01 -0.751514026E+01  0.250006262E+01
   C  0.584975200E-01  0.510813971E+01  0.250093128E+01
   C -0.375931186E+03 -0.177191808E+04  0.249967047E+01
   C -0.527767424E+01  0.965276923E+00  0.249909749E+01
   C  0.155497144E+01  0.118071828E+01  0.250010907E+01
   H -0.102865154E+02  0.199323094E+02  0.248948013E+01
   H  0.994434431E+01  0.149392483E+02  0.249019897E+01
   H -0.251179587E+02 -0.223376968E+01  0.248664207E+01
   H  0.246646585E+02  0.696667210E+01  0.249115542E+01
  Xx  0.266909718E+03 -0.290756197E+03  0.249934102E+01
    11
 # iter = 36750  time[fs]=36.75000
   N -0.381857981E+01 -0.546730112E+01  0.250001156E+01
   N  0.368699017E+01 -0.756525602E+01  0.250006408E+01
   C  0.637023289E-01  0.514292538E+01  0.250093605E+01
   C -0.378539582E+03 -0.178419855E+04  0.249966817E+01
   C -0.531192979E+01  0.972319440E+00  0.249909120E+01
   C  0.156346708E+01  0.118887098E+01  0.250011271E+01
   H -0.103625006E+02  0.200798923E+02  0.248938687E+01
   H  0.100197372E+02  0.150512535E+02  0.249010816E+01
   H -0.253016250E+02 -0.225257573E+01  0.248652612E+01
   H  0.248403152E+02  0.701660976E+01  0.249107931E+01
  Xx  0.268753732E+03 -0.292778590E+03  0.249933637E+01
    11
 # iter = 37000  time[fs]=37.00000
   N -0.384294894E+01 -0.550236656E+01  0.250001286E+01
   N  0.371137002E+01 -0.761534268E+01  0.250006603E+01
   C  0.688709706E-01  0.517773938E+01  0.250094130E+01
   C -0.381147978E+03 -0.179647901E+04  0.249966587E+01
   C -0.534622866E+01  0.979360658E+00  0.249908430E+01
   C  0.157196889E+01  0.119700721E+01  0.250011405E+01
   H -0.104385436E+02  0.202275729E+02  0.248929360E+01
   H  0.100952055E+02  0.151633804E+02  0.249001736E+01
   H -0.254853889E+02 -0.227139709E+01  0.248641016E+01
   H  0.250160697E+02  0.706655550E+01  0.249100320E+01
  Xx  0.270597746E+03 -0.294800983E+03  0.249933172E+01
    11
 # iter = 37250  time[fs]=37.25000
   N -0.386727519E+01 -0.553744876E+01  0.250001443E+01
   N  0.373581634E+01 -0.766546174E+01  0.250006774E+01
   C  0.740378148E-01  0.521260788E+01  0.250094551E+01
   C -0.383756373E+03 -0.180875947E+04  0.249966357E+01
   C -0.538052177E+01  0.986402297E+00  0.249907627E+01
   C  0.158048950E+01  0.120509178E+01  0.250011680E+01
   H -0.105146443E+02  0.203753512E+02  0.248920033E+01
   H  0.101707493E+02  0.152756303E+02  0.248992655E+01
   H -0.256692506E+02 -0.229023296E+01  0.248629420E+01
   H  0.251919219E+02  0.711651013E+01  0.249092709E+01
  Xx  0.272441759E+03 -0.296823377E+03  0.249932707E+01
    11
 # iter = 37500  time[fs]=37.50000
   N -0.389159242E+01 -0.557251189E+01  0.250001589E+01
   N  0.376030477E+01 -0.771565257E+01  0.250006908E+01
   C  0.791783218E-01  0.524750398E+01  0.250095026E+01
   C -0.386364769E+03 -0.182103993E+04  0.249966127E+01
   C -0.541487114E+01  0.993462422E+00  0.249907051E+01
   C  0.158903162E+01  0.121319318E+01  0.250011955E+01
   H -0.105908028E+02  0.205232272E+02  0.248910706E+01
   H  0.102463686E+02  0.153880046E+02  0.248983574E+01
   H -0.258532099E+02 -0.230908326E+01  0.248617825E+01
   H  0.253678717E+02  0.716647491E+01  0.249085098E+01
  Xx  0.274285773E+03 -0.298845770E+03  0.249932242E+01
    11
 # iter = 37750  time[fs]=37.75000
   N -0.391595412E+01 -0.560755242E+01  0.250001690E+01
   N  0.378480053E+01 -0.776588987E+01  0.250007033E+01
   C  0.843034871E-01  0.528244258E+01  0.250095445E+01
   C -0.388973165E+03 -0.183332039E+04  0.249965897E+01
   C -0.544924854E+01  0.100050265E+01  0.249906220E+01
   C  0.159758535E+01  0.122124243E+01  0.250012041E+01
   H -0.106670189E+02  0.206712009E+02  0.248901380E+01
   H  0.103220635E+02  0.155005033E+02  0.248974493E+01
   H -0.260372670E+02 -0.232794742E+01  0.248606229E+01
   H  0.255439202E+02  0.721645087E+01  0.249077488E+01
  Xx  0.276129787E+03 -0.300868163E+03  0.249931777E+01
    11
 # iter = 38000  time[fs]=38.00000
   N -0.394040087E+01 -0.564259797E+01  0.250001810E+01
   N  0.380927779E+01 -0.781615070E+01  0.250007183E+01
   C  0.894203544E-01  0.531742581E+01  0.250095851E+01
   C -0.391581560E+03 -0.184560086E+04  0.249965667E+01
   C -0.548366197E+01  0.100757335E+01  0.249905499E+01
   C  0.160616215E+01  0.122928302E+01  0.250012367E+01
   H -0.107432929E+02  0.208192727E+02  0.248892053E+01
   H  0.103978338E+02  0.156131284E+02  0.248965413E+01
   H -0.262214218E+02 -0.234682491E+01  0.248594634E+01
   H  0.257200739E+02  0.726643954E+01  0.249069877E+01
  Xx  0.277973801E+03 -0.302890556E+03  0.249931312E+01
    11
 # iter = 38250  time[fs]=38.25000
   N -0.396493345E+01 -0.567768164E+01  0.250001964E+01
   N  0.383372820E+01 -0.786643607E+01  0.250007282E+01
   C  0.945144602E-01  0.535242352E+01  0.250096312E+01
   C -0.394189956E+03 -0.185788132E+04  0.249965437E+01
   C -0.551812637E+01  0.101462037E+01  0.249904883E+01
   C  0.161475782E+01  0.123731784E+01  0.250012521E+01
   H -0.108196245E+02  0.209674486E+02  0.248882726E+01
   H  0.104736796E+02  0.157258823E+02  0.248956332E+01
   H -0.264056742E+02 -0.236571547E+01  0.248583038E+01
   H  0.258963342E+02  0.731644194E+01  0.249062266E+01
  Xx  0.279817815E+03 -0.304912949E+03  0.249930847E+01
    11
 # iter = 38500  time[fs]=38.50000
   N -0.398953379E+01 -0.571281985E+01  0.250002106E+01
   N  0.385816754E+01 -0.791674693E+01  0.250007391E+01
   C  0.996024861E-01  0.538748098E+01  0.250096671E+01
   C -0.396798352E+03 -0.187016178E+04  0.249965207E+01
   C -0.555259389E+01  0.102168702E+01  0.249904093E+01
   C  0.162337946E+01  0.124530458E+01  0.250012691E+01
   H -0.108960139E+02  0.211157311E+02  0.248873399E+01
   H  0.105496009E+02  0.158387660E+02  0.248947251E+01
   H -0.265900244E+02 -0.238461829E+01  0.248571442E+01
   H  0.260727010E+02  0.736645972E+01  0.249054655E+01
  Xx  0.281661828E+03 -0.306935343E+03  0.249930382E+01
    11
 # iter = 38750  time[fs]=38.75000
   N -0.401417712E+01 -0.574800353E+01  0.250002206E+01
   N  0.388262083E+01 -0.796712300E+01  0.250007528E+01
   C  0.104676926E+00  0.542256351E+01  0.250097096E+01
   C -0.399406747E+03 -0.188244224E+04  0.249964977E+01
   C -0.558712322E+01  0.102874149E+01  0.249903454E+01
   C  0.163201819E+01  0.125329569E+01  0.250013047E+01
   H -0.109724610E+02  0.212641202E+02  0.248864073E+01
   H  0.106255977E+02  0.159517826E+02  0.248938170E+01
   H -0.267744722E+02 -0.240353333E+01  0.248559847E+01
   H  0.262491744E+02  0.741649385E+01  0.249047044E+01
  Xx  0.283505842E+03 -0.308957736E+03  0.249929917E+01
    11
 # iter = 39000  time[fs]=39.00000
   N -0.403882414E+01 -0.578320451E+01  0.250002313E+01
   N  0.390711888E+01 -0.801757203E+01  0.250007618E+01
   C  0.109740821E+00  0.545769816E+01  0.250097450E+01
   C -0.402015143E+03 -0.189472270E+04  0.249964747E+01
   C -0.562166200E+01  0.103580131E+01  0.249902778E+01
   C  0.164068483E+01  0.126125389E+01  0.250013143E+01
   H -0.110489658E+02  0.214126159E+02  0.248854746E+01
   H  0.107016700E+02  0.160649324E+02  0.248929090E+01
   H -0.269590178E+02 -0.242246008E+01  0.248548251E+01
   H  0.264257544E+02  0.746654573E+01  0.249039433E+01
  Xx  0.285349856E+03 -0.310980129E+03  0.249929452E+01
    11
 # iter = 39250  time[fs]=39.25000
   N -0.406343143E+01 -0.581839260E+01  0.250002452E+01
   N  0.393169701E+01 -0.806806420E+01  0.250007701E+01
   C  0.114791907E+00  0.549289101E+01  0.250097801E+01
   C -0.404623538E+03 -0.190700317E+04  0.249964517E+01
   C -0.565624703E+01  0.104287560E+01  0.249902024E+01
   C  0.164937188E+01  0.126918859E+01  0.250013433E+01
   H -0.111255284E+02  0.215612181E+02  0.248845419E+01
   H  0.107778178E+02  0.161782155E+02  0.248920009E+01
   H -0.271436655E+02 -0.244139793E+01  0.248536656E+01
   H  0.266024410E+02  0.751661676E+01  0.249031823E+01
  Xx  0.287193870E+03 -0.313002522E+03  0.249928987E+01
    11
 # iter = 39500  time[fs]=39.50000
   N -0.408798832E+01 -0.585354909E+01  0.250002582E+01
   N  0.395635073E+01 -0.811860130E+01  0.250007795E+01
   C  0.119836395E+00  0.552811662E+01  0.250098176E+01
   C -0.407231934E+03 -0.191928363E+04  0.249964287E+01
   C -0.569087128E+01  0.104992129E+01  0.249901377E+01
   C  0.165807697E+01  0.127712950E+01  0.250013679E+01
   H -0.112021500E+02  0.217099270E+02  0.248836092E+01
   H  0.108540411E+02  0.162916353E+02  0.248910928E+01
   H -0.273284198E+02 -0.246034686E+01  0.248525060E+01
   H  0.267792342E+02  0.756670778E+01  0.249024212E+01
  Xx  0.289037884E+03 -0.315024915E+03  0.249928522E+01
    11
 # iter = 39750  time[fs]=39.75000
   N -0.411252042E+01 -0.588868407E+01  0.250002669E+01
   N  0.398107769E+01 -0.816919929E+01  0.250007855E+01
   C  0.124863240E+00  0.556340130E+01  0.250098472E+01
   C -0.409840330E+03 -0.193156409E+04  0.249964057E+01
   C -0.572553478E+01  0.105700518E+01  0.249900726E+01
   C  0.166682161E+01  0.128501293E+01  0.250013783E+01
   H -0.112788327E+02  0.218587424E+02  0.248826766E+01
   H  0.109303399E+02  0.164051971E+02  0.248901847E+01
   H -0.275132807E+02 -0.247930613E+01  0.248513464E+01
   H  0.269561340E+02  0.761681993E+01  0.249016601E+01
  Xx  0.290881897E+03 -0.317047309E+03  0.249928057E+01
    11
 # iter = 40000  time[fs]=40.00000
   N -0.413706231E+01 -0.592384511E+01  0.250002754E+01
   N  0.400586491E+01 -0.821986559E+01  0.250007943E+01
   C  0.129891875E+00  0.559871869E+01  0.250098842E+01
   C -0.412448725E+03 -0.194384455E+04  0.249963826E+01
   C -0.576025068E+01  0.106405480E+01  0.249899942E+01
   C  0.167557272E+01  0.129290078E+01  0.250014149E+01
   H -0.113555773E+02  0.220076644E+02  0.248817439E+01
   H  0.110067141E+02  0.165189011E+02  0.248892767E+01
   H -0.276982482E+02 -0.249827538E+01  0.248501869E+01
   H  0.271331403E+02  0.766695429E+01  0.249008990E+01
  Xx  0.292725911E+03 -0.319069702E+03  0.249927592E+01
    11
 # iter = 40250  time[fs]=40.25000
   N -0.416165355E+01 -0.595906738E+01  0.250002871E+01
   N  0.403070231E+01 -0.827060471E+01  0.250008001E+01
   C  0.134903015E+00  0.563408446E+01  0.250099138E+01
   C -0.415057121E+03 -0.195612501E+04  0.249963596E+01
   C -0.579499267E+01  0.107113596E+01  0.249899340E+01
   C  0.168435943E+01  0.130076263E+01  0.250014286E+01
   H -0.114323806E+02  0.221566930E+02  0.248808112E+01
   H  0.110831639E+02  0.166327471E+02  0.248883686E+01
   H -0.278833223E+02 -0.251725463E+01  0.248490273E+01
   H  0.273102532E+02  0.771711085E+01  0.249001379E+01
  Xx  0.294569925E+03 -0.321092095E+03  0.249927127E+01
    11
 # iter = 40500  time[fs]=40.50000
   N -0.418633481E+01 -0.599433567E+01  0.250002992E+01
   N  0.405558190E+01 -0.832140463E+01  0.250008061E+01
   C  0.139909122E+00  0.566950989E+01  0.250099467E+01
   C -0.417665517E+03 -0.196840548E+04  0.249963366E+01
   C -0.582977918E+01  0.107820322E+01  0.249898632E+01
   C  0.169317240E+01  0.130858411E+01  0.250014479E+01
   H -0.115092417E+02  0.223058282E+02  0.248798785E+01
   H  0.111596892E+02  0.167467353E+02  0.248874605E+01
   H -0.280685029E+02 -0.253624372E+01  0.248478678E+01
   H  0.274874727E+02  0.776728971E+01  0.248993769E+01
  Xx  0.296413939E+03 -0.323114488E+03  0.249926662E+01
    11
 # iter = 40750  time[fs]=40.75000
   N -0.421111939E+01 -0.602961006E+01  0.250003068E+01
   N  0.408051006E+01 -0.837227169E+01  0.250008124E+01
   C  0.144918209E+00  0.570497417E+01  0.250099792E+01
   C -0.420273912E+03 -0.198068594E+04  0.249963136E+01
   C -0.586458934E+01  0.108526999E+01  0.249897859E+01
   C  0.170199320E+01  0.131641412E+01  0.250014794E+01
   H -0.115861606E+02  0.224550699E+02  0.248789458E+01
   H  0.112362899E+02  0.168608656E+02  0.248865524E+01
   H -0.282537901E+02 -0.255524181E+01  0.248467082E+01
   H  0.276647988E+02  0.781749244E+01  0.248986158E+01
  Xx  0.298257953E+03 -0.325136881E+03  0.249926197E+01
    11
 # iter = 41000  time[fs]=41.00000
   N -0.423599254E+01 -0.606486034E+01  0.250003126E+01
   N  0.410549090E+01 -0.842320686E+01  0.250008193E+01
   C  0.149902827E+00  0.574050632E+01  0.250100072E+01
   C -0.422882308E+03 -0.199296640E+04  0.249962906E+01
   C -0.589945795E+01  0.109236447E+01  0.249897339E+01
   C  0.171086216E+01  0.132419483E+01  0.250014862E+01
   H -0.116631371E+02  0.226044182E+02  0.248780132E+01
   H  0.113129662E+02  0.169751380E+02  0.248856444E+01
   H -0.284391839E+02 -0.257424879E+01  0.248455486E+01
   H  0.278422315E+02  0.786771960E+01  0.248978547E+01
  Xx  0.300101966E+03 -0.327159275E+03  0.249925733E+01
    11
 # iter = 41250  time[fs]=41.25000
   N -0.426092590E+01 -0.610007706E+01  0.250003224E+01
   N  0.413053200E+01 -0.847421647E+01  0.250008253E+01
   C  0.154907146E+00  0.577608332E+01  0.250100412E+01
   C -0.425490704E+03 -0.200524686E+04  0.249962676E+01
   C -0.593434503E+01  0.109943216E+01  0.249896532E+01
   C  0.171973938E+01  0.133197094E+01  0.250015154E+01
   H -0.117401714E+02  0.227538731E+02  0.248770805E+01
   H  0.113897180E+02  0.170895524E+02  0.248847363E+01
   H -0.286246838E+02 -0.259326465E+01  0.248443891E+01
   H  0.280197707E+02  0.791797119E+01  0.248970936E+01
  Xx  0.301945980E+03 -0.329181668E+03  0.249925268E+01
    11
 # iter = 41500  time[fs]=41.50000
   N -0.428587942E+01 -0.613526988E+01  0.250003325E+01
   N  0.415563088E+01 -0.852529578E+01  0.250008314E+01
   C  0.159886111E+00  0.581170395E+01  0.250100658E+01
   C -0.428099099E+03 -0.201752732E+04  0.249962446E+01
   C -0.596929607E+01  0.110654035E+01  0.249895894E+01
   C  0.172863947E+01  0.133972635E+01  0.250015348E+01
   H -0.118172635E+02  0.229034346E+02  0.248761478E+01
   H  0.114665452E+02  0.172041062E+02  0.248838282E+01
   H -0.288102835E+02 -0.261228939E+01  0.248432295E+01
   H  0.281974166E+02  0.796824720E+01  0.248963325E+01
  Xx  0.303789994E+03 -0.331204061E+03  0.249924803E+01
    11
 # iter = 41750  time[fs]=41.75000
   N -0.431081205E+01 -0.617047590E+01  0.250003388E+01
   N  0.418079020E+01 -0.857644543E+01  0.250008389E+01
   C  0.164873442E+00  0.584738014E+01  0.250100950E+01
   C -0.430707495E+03 -0.202980779E+04  0.249962216E+01
   C -0.600428060E+01  0.111362220E+01  0.249895300E+01
   C  0.173757333E+01  0.134745840E+01  0.250015436E+01
   H -0.118944132E+02  0.230531000E+02  0.248752151E+01
   H  0.115434479E+02  0.173187934E+02  0.248829202E+01
   H -0.289959808E+02 -0.263132301E+01  0.248420699E+01
   H  0.283751690E+02  0.801854748E+01  0.248955715E+01
  Xx  0.305634008E+03 -0.333226454E+03  0.249924338E+01
    11
 # iter = 42000  time[fs]=42.00000
   N -0.433571046E+01 -0.620573844E+01  0.250003428E+01
   N  0.420600976E+01 -0.862766541E+01  0.250008464E+01
   C  0.169861779E+00  0.588309482E+01  0.250101198E+01
   C -0.433315891E+03 -0.204208825E+04  0.249961986E+01
   C -0.603930251E+01  0.112073944E+01  0.249894498E+01
   C  0.174650619E+01  0.135519102E+01  0.250015768E+01
   H -0.119716207E+02  0.232028634E+02  0.248742825E+01
   H  0.116204240E+02  0.174336138E+02  0.248820121E+01
   H -0.291817759E+02 -0.265036552E+01  0.248409104E+01
   H  0.285530280E+02  0.806887041E+01  0.248948104E+01
  Xx  0.307478022E+03 -0.335248847E+03  0.249923873E+01
    11
 # iter = 42250  time[fs]=42.25000
   N -0.436059562E+01 -0.624105867E+01  0.250003498E+01
   N  0.423128913E+01 -0.867895639E+01  0.250008539E+01
   C  0.174834440E+00  0.591885517E+01  0.250101419E+01
   C -0.435924286E+03 -0.205436871E+04  0.249961756E+01
   C -0.607437871E+01  0.112784663E+01  0.249893934E+01
   C  0.175547691E+01  0.136288245E+01  0.250015860E+01
   H -0.120488859E+02  0.233527245E+02  0.248733498E+01
   H  0.116974712E+02  0.175485674E+02  0.248811040E+01
   H -0.293676686E+02 -0.266941669E+01  0.248397508E+01
   H  0.287309935E+02  0.811921555E+01  0.248940493E+01
  Xx  0.309322035E+03 -0.337271241E+03  0.249923408E+01
    11
 # iter = 42500  time[fs]=42.50000
   N -0.438548935E+01 -0.627639865E+01  0.250003589E+01
   N  0.425662749E+01 -0.873031727E+01  0.250008614E+01
   C  0.179827055E+00  0.595468311E+01  0.250101687E+01
   C -0.438532682E+03 -0.206664917E+04  0.249961526E+01
   C -0.610945836E+01  0.113497564E+01  0.249893260E+01
   C  0.176446283E+01  0.137059025E+01  0.250016059E+01
   H -0.121262061E+02  0.235026832E+02  0.248724171E+01
   H  0.117745894E+02  0.176636542E+02  0.248801959E+01
   H -0.295536591E+02 -0.268847587E+01  0.248385913E+01
   H  0.289090657E+02  0.816958289E+01  0.248932882E+01
  Xx  0.311166049E+03 -0.339293634E+03  0.249922943E+01
    11
 # iter = 42750  time[fs]=42.75000
   N -0.441041925E+01 -0.631171549E+01  0.250003658E+01
   N  0.428202303E+01 -0.878174607E+01  0.250008689E+01
   C  0.184801783E+00  0.599054152E+01  0.250101868E+01
   C -0.441141078E+03 -0.207892963E+04  0.249961296E+01
   C -0.614460916E+01  0.114211054E+01  0.249892529E+01
   C  0.177345388E+01  0.137827518E+01  0.250016348E+01
   H -0.122035796E+02  0.236527397E+02  0.248714844E+01
   H  0.118517786E+02  0.177788743E+02  0.248792879E+01
   H -0.297397472E+02 -0.270754287E+01  0.248374317E+01
   H  0.290872421E+02  0.821997243E+01  0.248925271E+01
  Xx  0.313010063E+03 -0.341316027E+03  0.249922478E+01
    11
 # iter = 43000  time[fs]=43.00000
   N -0.443542844E+01 -0.634698804E+01  0.250003701E+01
   N  0.430747651E+01 -0.883324439E+01  0.250008764E+01
   C  0.189784779E+00  0.602646328E+01  0.250102107E+01
   C -0.443749473E+03 -0.209121009E+04  0.249961066E+01
   C -0.617977159E+01  0.114925261E+01  0.249891952E+01
   C  0.178248147E+01  0.138594660E+01  0.250016385E+01
   H -0.122810064E+02  0.238028938E+02  0.248705518E+01
   H  0.119290389E+02  0.178942274E+02  0.248783798E+01
   H -0.299259330E+02 -0.272661765E+01  0.248362721E+01
   H  0.292655165E+02  0.827038418E+01  0.248917661E+01
  Xx  0.314854077E+03 -0.343338420E+03  0.249922013E+01
    11
 # iter = 43250  time[fs]=43.25000
   N -0.446053420E+01 -0.638223453E+01  0.250003753E+01
   N  0.433298856E+01 -0.888481246E+01  0.250008839E+01
   C  0.194768026E+00  0.606242775E+01  0.250102274E+01
   C -0.446357869E+03 -0.210349056E+04  0.249960836E+01
   C -0.621499464E+01  0.115642422E+01  0.249891291E+01
   C  0.179150270E+01  0.139362997E+01  0.250016677E+01
   H -0.123584865E+02  0.239531457E+02  0.248696191E+01
   H  0.120063687E+02  0.180097076E+02  0.248774717E+01
   H -0.301122166E+02 -0.274570021E+01  0.248351126E+01
   H  0.294438886E+02  0.832081813E+01  0.248910050E+01
  Xx  0.316698091E+03 -0.345360813E+03  0.249921548E+01
    11
 # iter = 43500  time[fs]=43.50000
   N -0.448571353E+01 -0.641750765E+01  0.250003834E+01
   N  0.435855957E+01 -0.893645107E+01  0.250008914E+01
   C  0.199745579E+00  0.609841475E+01  0.250102439E+01
   C -0.448966265E+03 -0.211577102E+04  0.249960606E+01
   C -0.625025339E+01  0.116358311E+01  0.249890547E+01
   C  0.180054539E+01  0.140128463E+01  0.250016840E+01
   H -0.124360198E+02  0.241034952E+02  0.248686864E+01
   H  0.120837662E+02  0.181253122E+02  0.248765636E+01
   H -0.302985978E+02 -0.276479053E+01  0.248339530E+01
   H  0.296223584E+02  0.837127429E+01  0.248902439E+01
  Xx  0.318542104E+03 -0.347383207E+03  0.249921083E+01
    11
 # iter = 43750  time[fs]=43.75000
   N -0.451093391E+01 -0.645284569E+01  0.250003913E+01
   N  0.438418843E+01 -0.898815739E+01  0.250008989E+01
   C  0.204728530E+00  0.613447113E+01  0.250102600E+01
   C -0.451574660E+03 -0.212805148E+04  0.249960376E+01
   C -0.628554180E+01  0.117079118E+01  0.249890046E+01
   C  0.180960767E+01  0.140896627E+01  0.250016938E+01
   H -0.125136065E+02  0.242539422E+02  0.248677537E+01
   H  0.121612304E+02  0.182410410E+02  0.248756556E+01
   H -0.304850719E+02 -0.278388863E+01  0.248327935E+01
   H  0.298009259E+02  0.842175265E+01  0.248894828E+01
  Xx  0.320386118E+03 -0.349405600E+03  0.249920618E+01
    11
 # iter = 44000  time[fs]=44.00000
   N -0.453616788E+01 -0.648824311E+01  0.250003948E+01
   N  0.440987428E+01 -0.903993032E+01  0.250009064E+01
   C  0.209708835E+00  0.617054492E+01  0.250102702E+01
   C -0.454183056E+03 -0.214033194E+04  0.249960146E+01
   C -0.632087894E+01  0.117797511E+01  0.249889301E+01
   C  0.181866813E+01  0.141661971E+01  0.250017265E+01
   H -0.125912464E+02  0.244044806E+02  0.248668211E+01
   H  0.122387612E+02  0.183568943E+02  0.248747475E+01
   H -0.306716349E+02 -0.280299449E+01  0.248316339E+01
   H  0.299795911E+02  0.847225322E+01  0.248887217E+01
  Xx  0.322230132E+03 -0.351427993E+03  0.249920153E+01
    11
 # iter = 44250  time[fs]=44.25000
   N -0.456139005E+01 -0.652366736E+01  0.250003984E+01
   N  0.443561572E+01 -0.909176987E+01  0.250009139E+01
   C  0.214685618E+00  0.620668693E+01  0.250102857E+01
   C -0.456791451E+03 -0.215261240E+04  0.249959916E+01
   C -0.635623413E+01  0.118520832E+01  0.249888628E+01
   C  0.182775628E+01  0.142428529E+01  0.250017318E+01
   H -0.126689396E+02  0.245551077E+02  0.248658884E+01
   H  0.123163586E+02  0.184728719E+02  0.248738394E+01
   H -0.308582866E+02 -0.282210813E+01  0.248304743E+01
   H  0.301583540E+02  0.852277599E+01  0.248879607E+01
  Xx  0.324074146E+03 -0.353450386E+03  0.249919688E+01
    11
 # iter = 44500  time[fs]=44.50000
   N -0.458658227E+01 -0.655907606E+01  0.250004047E+01
   N  0.446141268E+01 -0.914367603E+01  0.250009214E+01
   C  0.219667317E+00  0.624287136E+01  0.250102928E+01
   C -0.459399847E+03 -0.216489287E+04  0.249959686E+01
   C -0.639163713E+01  0.119243605E+01  0.249888141E+01
   C  0.183684933E+01  0.143196029E+01  0.250017557E+01
   H -0.127466835E+02  0.247058237E+02  0.248649557E+01
   H  0.123940227E+02  0.185889738E+02  0.248729313E+01
   H -0.310450272E+02 -0.284122954E+01  0.248293148E+01
   H  0.303372146E+02  0.857332097E+01  0.248871996E+01
  Xx  0.325918160E+03 -0.355472779E+03  0.249919223E+01
    11
 # iter = 44750  time[fs]=44.75000
   N -0.461175177E+01 -0.659443602E+01  0.250004106E+01
   N  0.448726515E+01 -0.919564880E+01  0.250009289E+01
   C  0.224646325E+00  0.627909023E+01  0.250103031E+01
   C -0.462008243E+03 -0.217717333E+04  0.249959456E+01
   C -0.642706432E+01  0.119967950E+01  0.249887284E+01
   C  0.184595796E+01  0.143960336E+01  0.250017813E+01
   H -0.128244762E+02  0.248566285E+02  0.248640230E+01
   H  0.124717532E+02  0.187051983E+02  0.248720233E+01
   H -0.312318566E+02 -0.286035872E+01  0.248281552E+01
   H  0.305161728E+02  0.862388815E+01  0.248864385E+01
  Xx  0.327762173E+03 -0.357495172E+03  0.249918758E+01
    11
 # iter = 45000  time[fs]=45.00000
   N -0.463692931E+01 -0.662975201E+01  0.250004126E+01
   N  0.451317313E+01 -0.924768819E+01  0.250009364E+01
   C  0.229617470E+00  0.631537153E+01  0.250103099E+01
   C -0.464616638E+03 -0.218945379E+04  0.249959226E+01
   C -0.646254953E+01  0.120695455E+01  0.249886795E+01
   C  0.185508148E+01  0.144728278E+01  0.250017829E+01
   H -0.129023177E+02  0.250075221E+02  0.248630904E+01
   H  0.125495471E+02  0.188215388E+02  0.248711152E+01
   H -0.314187748E+02 -0.287949567E+01  0.248269956E+01
   H  0.306952230E+02  0.867447753E+01  0.248856774E+01
  Xx  0.329606187E+03 -0.359517566E+03  0.249918293E+01
    11
 # iter = 45250  time[fs]=45.25000
   N -0.466215265E+01 -0.666508412E+01  0.250004134E+01
   N  0.453913662E+01 -0.929979419E+01  0.250009439E+01
   C  0.234602256E+00  0.635166559E+01  0.250103121E+01
   C -0.467225034E+03 -0.220173425E+04  0.249958996E+01
   C -0.649805789E+01  0.121421354E+01  0.249886162E+01
   C  0.186421507E+01  0.145493849E+01  0.250018164E+01
   H -0.129802081E+02  0.251585045E+02  0.248621577E+01
   H  0.126274031E+02  0.189379949E+02  0.248702071E+01
   H -0.316057818E+02 -0.289864032E+01  0.248258361E+01
   H  0.308743619E+02  0.872508912E+01  0.248849163E+01
  Xx  0.331450201E+03 -0.361539959E+03  0.249917828E+01
    11
 # iter = 45500  time[fs]=45.50000
   N -0.468745089E+01 -0.670048626E+01  0.250004169E+01
   N  0.456515562E+01 -0.935196542E+01  0.250009514E+01
   C  0.239565361E+00  0.638801562E+01  0.250103191E+01
   C -0.469833430E+03 -0.221401471E+04  0.249958766E+01
   C -0.653362052E+01  0.122152472E+01  0.249885400E+01
   C  0.187336975E+01  0.146259965E+01  0.250018269E+01
   H -0.130581473E+02  0.253095758E+02  0.248612250E+01
   H  0.127053213E+02  0.190545664E+02  0.248692990E+01
   H -0.317928776E+02 -0.291779214E+01  0.248246765E+01
   H  0.310535897E+02  0.877572291E+01  0.248841553E+01
  Xx  0.333294215E+03 -0.363562352E+03  0.249917363E+01
    11
 # iter = 45750  time[fs]=45.75000
   N -0.471282937E+01 -0.673595287E+01  0.250004219E+01
   N  0.459123006E+01 -0.940420069E+01  0.250009589E+01
   C  0.244536608E+00  0.642441026E+01  0.250103176E+01
   C -0.472441825E+03 -0.222629518E+04  0.249958536E+01
   C -0.656920453E+01  0.122881894E+01  0.249884954E+01
   C  0.188253533E+01  0.147027170E+01  0.250018362E+01
   H -0.131361354E+02  0.254607359E+02  0.248602923E+01
   H  0.127833017E+02  0.191712533E+02  0.248683910E+01
   H -0.319800623E+02 -0.293695110E+01  0.248235170E+01
   H  0.312329063E+02  0.882637891E+01  0.248833942E+01
  Xx  0.335138229E+03 -0.365584745E+03  0.249916898E+01
    11
 # iter = 46000  time[fs]=46.00000
   N -0.473827272E+01 -0.677144136E+01  0.250004237E+01
   N  0.461735841E+01 -0.945649913E+01  0.250009664E+01
   C  0.249506349E+00  0.646084005E+01  0.250103217E+01
   C -0.475050221E+03 -0.223857564E+04  0.249958306E+01
   C -0.660481335E+01  0.123614600E+01  0.249884220E+01
   C  0.189172449E+01  0.147791423E+01  0.250018693E+01
   H -0.132141724E+02  0.256119847E+02  0.248593596E+01
   H  0.128613443E+02  0.192880557E+02  0.248674829E+01
   H -0.321673357E+02 -0.295611672E+01  0.248223574E+01
   H  0.314123117E+02  0.887705550E+01  0.248826331E+01
  Xx  0.336982242E+03 -0.367607138E+03  0.249916433E+01
    11
 # iter = 46250  time[fs]=46.25000
   N -0.476376122E+01 -0.680690441E+01  0.250004234E+01
   N  0.464354005E+01 -0.950885973E+01  0.250009739E+01
   C  0.254453250E+00  0.649733182E+01  0.250103213E+01
   C -0.477658617E+03 -0.225085610E+04  0.249958076E+01
   C -0.664047236E+01  0.124347391E+01  0.249883590E+01
   C  0.190092402E+01  0.148558444E+01  0.250018689E+01
   H -0.132922582E+02  0.257633215E+02  0.248584270E+01
   H  0.129394490E+02  0.194049736E+02  0.248665748E+01
   H -0.323546980E+02 -0.297528900E+01  0.248211978E+01
   H  0.315918060E+02  0.892774990E+01  0.248818720E+01
  Xx  0.338826256E+03 -0.369629532E+03  0.249915968E+01
    11
 # iter = 46500  time[fs]=46.50000
   N -0.478927221E+01 -0.684231131E+01  0.250004257E+01
   N  0.466977497E+01 -0.956128251E+01  0.250009814E+01
   C  0.259420260E+00  0.653385978E+01  0.250103182E+01
   C -0.480267012E+03 -0.226313656E+04  0.249957845E+01
   C -0.667613868E+01  0.125081040E+01  0.249883091E+01
   C  0.191014843E+01  0.149322792E+01  0.250018928E+01
   H -0.133703921E+02  0.259147396E+02  0.248574943E+01
   H  0.130176159E+02  0.195220069E+02  0.248656668E+01
   H -0.325421491E+02 -0.299446794E+01  0.248200383E+01
   H  0.317713890E+02  0.897846207E+01  0.248811109E+01
  Xx  0.340670270E+03 -0.371651925E+03  0.249915503E+01
    11
 # iter = 46750  time[fs]=46.75000
   N -0.481477676E+01 -0.687767121E+01  0.250004285E+01
   N  0.469606319E+01 -0.961376746E+01  0.250009890E+01
   C  0.264356547E+00  0.657042234E+01  0.250103189E+01
   C -0.482875408E+03 -0.227541702E+04  0.249957615E+01
   C -0.671188294E+01  0.125817000E+01  0.249882382E+01
   C  0.191939126E+01  0.150086368E+01  0.250019130E+01
   H -0.134485709E+02  0.260662375E+02  0.248565616E+01
   H  0.130958448E+02  0.196391533E+02  0.248647587E+01
   H -0.327296891E+02 -0.301365354E+01  0.248188787E+01
   H  0.319510609E+02  0.902919200E+01  0.248803499E+01
  Xx  0.342514284E+03 -0.373674318E+03  0.249915038E+01
    11
 # iter = 47000  time[fs]=47.00000
   N -0.484025670E+01 -0.691303847E+01  0.250004277E+01
   N  0.472240470E+01 -0.966631458E+01  0.250009965E+01
   C  0.269296388E+00  0.660703318E+01  0.250103111E+01
   C -0.485483804E+03 -0.228769749E+04  0.249957385E+01
   C -0.674763604E+01  0.126552061E+01  0.249881798E+01
   C  0.192864603E+01  0.150851678E+01  0.250019125E+01
   H -0.135267941E+02  0.262178154E+02  0.248556289E+01
   H  0.131741324E+02  0.197564065E+02  0.248638506E+01
   H -0.329173178E+02 -0.303284581E+01  0.248177192E+01
   H  0.321308216E+02  0.907993969E+01  0.248795888E+01
  Xx  0.344358298E+03 -0.375696711E+03  0.249914573E+01
    11
 # iter = 47250  time[fs]=47.25000
   N -0.486573088E+01 -0.694846576E+01  0.250004247E+01
   N  0.474879950E+01 -0.971892387E+01  0.250010040E+01
   C  0.274234460E+00  0.664367080E+01  0.250103092E+01
   C -0.488092199E+03 -0.229997795E+04  0.249957155E+01
   C -0.678344075E+01  0.127290334E+01  0.249881311E+01
   C  0.193793878E+01  0.151612794E+01  0.250019449E+01
   H -0.136050616E+02  0.263694733E+02  0.248546963E+01
   H  0.132524778E+02  0.198737663E+02  0.248629425E+01
   H -0.331050354E+02 -0.305204473E+01  0.248165596E+01
   H  0.323106711E+02  0.913070515E+01  0.248788277E+01
  Xx  0.346202311E+03 -0.377719104E+03  0.249914109E+01
    11
 # iter = 47500  time[fs]=47.50000
   N -0.489123635E+01 -0.698395849E+01  0.250004238E+01
   N  0.477524759E+01 -0.977159534E+01  0.250010115E+01
   C  0.279144144E+00  0.668035829E+01  0.250103002E+01
   C -0.490700595E+03 -0.231225841E+04  0.249956925E+01
   C -0.681927520E+01  0.128026387E+01  0.249880557E+01
   C  0.194723634E+01  0.152375420E+01  0.250019472E+01
   H -0.136833736E+02  0.265212110E+02  0.248537636E+01
   H  0.133308809E+02  0.199912327E+02  0.248620345E+01
   H -0.332928417E+02 -0.307125032E+01  0.248154000E+01
   H  0.324906094E+02  0.918148837E+01  0.248780666E+01
  Xx  0.348046325E+03 -0.379741498E+03  0.249913644E+01
    11
 # iter = 47750  time[fs]=47.75000
   N -0.491679056E+01 -0.701948259E+01  0.250004243E+01
   N  0.480175002E+01 -0.982432898E+01  0.250010190E+01
   C  0.284069513E+00  0.671709750E+01  0.250102923E+01
   C -0.493308991E+03 -0.232453887E+04  0.249956695E+01
   C -0.685512246E+01  0.128765697E+01  0.249880060E+01
   C  0.195656229E+01  0.153136445E+01  0.250019584E+01
   H -0.137617300E+02  0.266730287E+02  0.248528309E+01
   H  0.134093418E+02  0.201088057E+02  0.248611264E+01
   H -0.334807369E+02 -0.309046257E+01  0.248142405E+01
   H  0.326706365E+02  0.923228935E+01  0.248773055E+01
  Xx  0.349890339E+03 -0.381763891E+03  0.249913179E+01
    11
 # iter = 48000  time[fs]=48.00000
   N -0.494240746E+01 -0.705498859E+01  0.250004221E+01
   N  0.482830702E+01 -0.987712479E+01  0.250010265E+01
   C  0.288966970E+00  0.675386770E+01  0.250102854E+01
   C -0.495917386E+03 -0.233681933E+04  0.249956465E+01
   C -0.689102798E+01  0.129503836E+01  0.249879522E+01
   C  0.196591500E+01  0.153895575E+01  0.250019875E+01
   H -0.138401308E+02  0.268249264E+02  0.248518982E+01
   H  0.134878604E+02  0.202264852E+02  0.248602183E+01
   H -0.336687178E+02 -0.310968148E+01  0.248130809E+01
   H  0.328507525E+02  0.928310810E+01  0.248765445E+01
  Xx  0.351734353E+03 -0.383786284E+03  0.249912714E+01
    11
 # iter = 48250  time[fs]=48.25000
   N -0.496810293E+01 -0.709043715E+01  0.250004181E+01
   N  0.485491950E+01 -0.992998277E+01  0.250010340E+01
   C  0.293861763E+00  0.679069855E+01  0.250102699E+01
   C -0.498525782E+03 -0.234909979E+04  0.249956235E+01
   C -0.692694584E+01  0.130243219E+01  0.249878752E+01
   C  0.197527140E+01  0.154655406E+01  0.250019806E+01
   H -0.139185761E+02  0.269769040E+02  0.248509656E+01
   H  0.135664367E+02  0.203442713E+02  0.248593102E+01
   H -0.338567713E+02 -0.312890705E+01  0.248119213E+01
   H  0.330309573E+02  0.933394461E+01  0.248757834E+01
  Xx  0.353578367E+03 -0.385808677E+03  0.249912249E+01
    11
 # iter = 48500  time[fs]=48.50000
   N -0.499386777E+01 -0.712583589E+01  0.250004166E+01
   N  0.488158748E+01 -0.998290293E+01  0.250010415E+01
   C  0.298750132E+00  0.682754872E+01  0.250102611E+01
   C -0.501134178E+03 -0.236138026E+04  0.249956005E+01
   C -0.696292893E+01  0.130984483E+01  0.249878410E+01
   C  0.198466755E+01  0.155411409E+01  0.250020067E+01
   H -0.139970657E+02  0.271289615E+02  0.248500329E+01
   H  0.136450708E+02  0.204621640E+02  0.248584022E+01
   H -0.340448958E+02 -0.314813928E+01  0.248107618E+01
   H  0.332112509E+02  0.938479889E+01  0.248750223E+01
  Xx  0.355422380E+03 -0.387831070E+03  0.249911784E+01
    11
 # iter = 48750  time[fs]=48.75000
   N -0.501967108E+01 -0.716124992E+01  0.250004170E+01
   N  0.490831098E+01 -0.100358853E+02  0.250010490E+01
   C  0.303616873E+00  0.686443841E+01  0.250102442E+01
   C -0.503742573E+03 -0.237366072E+04  0.249955775E+01
   C -0.699893607E+01  0.131723353E+01  0.249877692E+01
   C  0.199406810E+01  0.156168677E+01  0.250020221E+01
   H -0.140755997E+02  0.272810990E+02  0.248491002E+01
   H  0.137237626E+02  0.205801633E+02  0.248574941E+01
   H -0.342330913E+02 -0.316737817E+01  0.248096022E+01
   H  0.333916333E+02  0.943567092E+01  0.248742612E+01
  Xx  0.357266394E+03 -0.389853464E+03  0.249911319E+01
    11
 # iter = 49000  time[fs]=49.00000
   N -0.504548110E+01 -0.719673287E+01  0.250004146E+01
   N  0.493509124E+01 -0.100889298E+02  0.250010565E+01
   C  0.308487397E+00  0.690138367E+01  0.250102285E+01
   C -0.506350969E+03 -0.238594118E+04  0.249955545E+01
   C -0.703498842E+01  0.132466577E+01  0.249877116E+01
   C  0.200348613E+01  0.156923821E+01  0.250020210E+01
   H -0.141541782E+02  0.274333163E+02  0.248481675E+01
   H  0.138025121E+02  0.206982692E+02  0.248565860E+01
   H -0.344213579E+02 -0.318662373E+01  0.248084427E+01
   H  0.335721045E+02  0.948656073E+01  0.248735001E+01
  Xx  0.359110408E+03 -0.391875857E+03  0.249910854E+01
    11
 # iter = 49250  time[fs]=49.25000
   N -0.507127879E+01 -0.723228209E+01  0.250004081E+01
   N  0.496192933E+01 -0.101420364E+02  0.250010640E+01
   C  0.313340897E+00  0.693834721E+01  0.250102122E+01
   C -0.508959364E+03 -0.239822164E+04  0.249955315E+01
   C -0.707106870E+01  0.133206456E+01  0.249876713E+01
   C  0.201293875E+01  0.157676765E+01  0.250020523E+01
   H -0.142328010E+02  0.275856137E+02  0.248472349E+01
   H  0.138813193E+02  0.208164816E+02  0.248556779E+01
   H -0.346096955E+02 -0.320587595E+01  0.248072831E+01
   H  0.337526646E+02  0.953746829E+01  0.248727391E+01
  Xx  0.360954422E+03 -0.393898250E+03  0.249910389E+01
    11
 # iter = 49500  time[fs]=49.50000
   N -0.509706574E+01 -0.726786438E+01  0.250004035E+01
   N  0.498882682E+01 -0.101952053E+02  0.250010715E+01
   C  0.318184896E+00  0.697538631E+01  0.250101910E+01
   C -0.511567760E+03 -0.241050210E+04  0.249955085E+01
   C -0.710718308E+01  0.133950553E+01  0.249875937E+01
   C  0.202238155E+01  0.158431001E+01  0.250020510E+01
   H -0.143114683E+02  0.277379909E+02  0.248463022E+01
   H  0.139601843E+02  0.209348007E+02  0.248547699E+01
   H -0.347981043E+02 -0.322513482E+01  0.248061235E+01
   H  0.339333134E+02  0.958839362E+01  0.248719780E+01
  Xx  0.362798436E+03 -0.395920643E+03  0.249909924E+01
    11
 # iter = 49750  time[fs]=49.75000
   N -0.512285931E+01 -0.730343980E+01  0.250004010E+01
   N  0.501578474E+01 -0.102484363E+02  0.250010790E+01
   C  0.323023421E+00  0.701245090E+01  0.250101746E+01
   C -0.514176156E+03 -0.242278257E+04  0.249954855E+01
   C -0.714333732E+01  0.134693985E+01  0.249875538E+01
   C  0.203185811E+01  0.159181552E+01  0.250020655E+01
   H -0.143901800E+02  0.278904481E+02  0.248453695E+01
   H  0.140391070E+02  0.210532263E+02  0.248538618E+01
   H -0.349865840E+02 -0.324440010E+01  0.248049640E+01
   H  0.341140484E+02  0.963933671E+01  0.248712169E+01
  Xx  0.364642449E+03 -0.397943036E+03  0.249909459E+01
    11
 # iter = 50000  time[fs]=50.00000
   N -0.514868356E+01 -0.733897992E+01  0.250003963E+01
   N  0.504280470E+01 -0.103017295E+02  0.250010865E+01
   C  0.327850808E+00  0.704956524E+01  0.250101489E+01
   C -0.516784551E+03 -0.243506303E+04  0.249954625E+01
   C -0.717952697E+01  0.135438899E+01  0.249874949E+01
   C  0.204134898E+01  0.159933331E+01  0.250020889E+01
   H -0.144689361E+02  0.280429853E+02  0.248444368E+01
   H  0.141180874E+02  0.211717585E+02  0.248529537E+01
   H -0.351751352E+02 -0.326367150E+01  0.248038044E+01
   H  0.342948563E+02  0.969029757E+01  0.248704558E+01
  Xx  0.366486463E+03 -0.399965430E+03  0.249908994E+01
