    11
 # iter =     0  time[fs]= 0.00000
   N -0.668466338E+00 -0.116463086E+01  0.250000000E+01
   N  0.668466338E+00 -0.116463086E+01  0.250000000E+01
   C -0.692277627E+00  0.124916000E+01  0.250000000E+01
   C  0.692277627E+00  0.124916000E+01  0.250000000E+01
   C -0.132315667E+01  0.433975300E-03  0.250000000E+01
   C  0.132315667E+01  0.433975300E-03  0.250000000E+01
   H -0.127180384E+01  0.216832769E+01  0.250000000E+01
   H  0.127180384E+01  0.216832769E+01  0.250000000E+01
   H -0.240769469E+01 -0.832907948E-01  0.250000000E+01
   H  0.240769469E+01 -0.832907948E-01  0.250000000E+01
  Xx  0.000000000E+00 -0.116463086E+01  0.200000000E+02
    11
 # iter =   250  time[fs]= 0.25000
   N -0.668479079E+00 -0.116465010E+01  0.249999695E+01
   N  0.668479079E+00 -0.116465010E+01  0.249999695E+01
   C -0.692272387E+00  0.124914056E+01  0.249999690E+01
   C  0.692272387E+00  0.124914056E+01  0.249999690E+01
   C -0.132312989E+01  0.430018824E-03  0.249999633E+01
   C  0.132312989E+01  0.430018824E-03  0.249999633E+01
   H -0.127181247E+01  0.216833747E+01  0.249997469E+01
   H  0.127181247E+01  0.216833747E+01  0.249997469E+01
   H -0.240778629E+01 -0.832937300E-01  0.249997180E+01
   H  0.240778629E+01 -0.832937300E-01  0.249997180E+01
  Xx -0.129666812E-19 -0.116464523E+01  0.835703932E+01
    11
 # iter =   500  time[fs]= 0.50000
   N -0.670287678E+00 -0.116485660E+01  0.249989492E+01
   N  0.670287678E+00 -0.116485660E+01  0.249989492E+01
   C -0.692253905E+00  0.124915630E+01  0.250001412E+01
   C  0.692253905E+00  0.124915630E+01  0.250001412E+01
   C -0.132326035E+01  0.671352522E-03  0.250000600E+01
   C  0.132326035E+01  0.671352522E-03  0.250000600E+01
   H -0.127206773E+01  0.216873229E+01  0.249994974E+01
   H  0.127206773E+01  0.216873229E+01  0.249994974E+01
   H -0.240874956E+01 -0.832794371E-01  0.249996107E+01
   H  0.240874956E+01 -0.832794371E-01  0.249996107E+01
  Xx -0.642817677E-18 -0.116568900E+01 -0.328405413E+01
    11
 # iter =   750  time[fs]= 0.75000
   N -0.674478910E+00 -0.116620755E+01  0.249993012E+01
   N  0.674478910E+00 -0.116620755E+01  0.249993012E+01
   C -0.692366387E+00  0.124941605E+01  0.250003708E+01
   C  0.692366387E+00  0.124941605E+01  0.250003708E+01
   C -0.132409308E+01  0.169512092E-02  0.249997898E+01
   C  0.132409308E+01  0.169512092E-02  0.249997898E+01
   H -0.127370862E+01  0.217121263E+01  0.249993111E+01
   H  0.127370862E+01  0.217121263E+01  0.249993111E+01
   H -0.241389701E+01 -0.832401704E-01  0.250020985E+01
   H  0.241389701E+01 -0.832401704E-01  0.250020985E+01
  Xx -0.216790961E-17 -0.116783154E+01 -0.149255270E+02
    11
 # iter =  1000  time[fs]= 1.00000
   N -0.679458726E+00 -0.116867510E+01  0.249995633E+01
   N  0.679458726E+00 -0.116867510E+01  0.249995633E+01
   C -0.692865423E+00  0.124992059E+01  0.250009496E+01
   C  0.692865423E+00  0.124992059E+01  0.250009496E+01
   C -0.132546544E+01  0.339903785E-02  0.249993657E+01
   C  0.132546544E+01  0.339903785E-02  0.249993657E+01
   H -0.127731075E+01  0.217669792E+01  0.249981710E+01
   H  0.127731075E+01  0.217669792E+01  0.249981710E+01
   H -0.242456402E+01 -0.830780129E-01  0.250046434E+01
   H  0.242456402E+01 -0.830780129E-01  0.250046434E+01
  Xx -0.367786524E-17 -0.117000705E+01 -0.265671577E+02
    11
 # iter =  1250  time[fs]= 1.25000
   N -0.685231249E+00 -0.117214999E+01  0.249999358E+01
   N  0.685231249E+00 -0.117214999E+01  0.249999358E+01
   C -0.693491138E+00  0.125060851E+01  0.250014749E+01
   C  0.693491138E+00  0.125060851E+01  0.250014749E+01
   C -0.132742676E+01  0.571030148E-02  0.249989525E+01
   C  0.132742676E+01  0.571030148E-02  0.249989525E+01
   H -0.128339670E+01  0.218592891E+01  0.249972075E+01
   H  0.128339670E+01  0.218592891E+01  0.249972075E+01
   H -0.244050770E+01 -0.832095644E-01  0.250059323E+01
   H  0.244050770E+01 -0.832095644E-01  0.250059323E+01
  Xx -0.518876852E-17 -0.117218578E+01 -0.382088613E+02
    11
 # iter =  1500  time[fs]= 1.50000
   N -0.691729798E+00 -0.117654249E+01  0.250004360E+01
   N  0.691729798E+00 -0.117654249E+01  0.250004360E+01
   C -0.694322133E+00  0.125165577E+01  0.250022142E+01
   C  0.694322133E+00  0.125165577E+01  0.250022142E+01
   C -0.133004755E+01  0.825725936E-02  0.249984206E+01
   C  0.133004755E+01  0.825725936E-02  0.249984206E+01
   H -0.129218658E+01  0.219952392E+01  0.249962363E+01
   H  0.129218658E+01  0.219952392E+01  0.249962363E+01
   H -0.246049423E+01 -0.836384941E-01  0.250050292E+01
   H  0.246049423E+01 -0.836384941E-01  0.250050292E+01
  Xx -0.670009286E-17 -0.117436571E+01 -0.498506022E+02
    11
 # iter =  1750  time[fs]= 1.75000
   N -0.698680325E+00 -0.118182952E+01  0.250007229E+01
   N  0.698680325E+00 -0.118182952E+01  0.250007229E+01
   C -0.695303151E+00  0.125319865E+01  0.250030299E+01
   C  0.695303151E+00  0.125319865E+01  0.250030299E+01
   C -0.133328406E+01  0.109261337E-01  0.249981772E+01
   C  0.133328406E+01  0.109261337E-01  0.249981772E+01
   H -0.130324397E+01  0.221692307E+01  0.249942359E+01
   H  0.130324397E+01  0.221692307E+01  0.249942359E+01
   H -0.248523554E+01 -0.844624256E-01  0.250048360E+01
   H  0.248523554E+01 -0.844624256E-01  0.250048360E+01
  Xx -0.821158397E-17 -0.117654623E+01 -0.614923636E+02
    11
 # iter =  2000  time[fs]= 2.00000
   N -0.706020147E+00 -0.118810932E+01  0.250010151E+01
   N  0.706020147E+00 -0.118810932E+01  0.250010151E+01
   C -0.696665035E+00  0.125510851E+01  0.250039280E+01
   C  0.696665035E+00  0.125510851E+01  0.250039280E+01
   C -0.133708193E+01  0.140085311E-01  0.249976033E+01
   C  0.133708193E+01  0.140085311E-01  0.249976033E+01
   H -0.131634359E+01  0.223722026E+01  0.249918351E+01
   H  0.131634359E+01  0.223722026E+01  0.249918351E+01
   H -0.251481631E+01 -0.854306323E-01  0.250081598E+01
   H  0.251481631E+01 -0.854306323E-01  0.250081598E+01
  Xx -0.972316150E-17 -0.117872706E+01 -0.731341373E+02
    11
 # iter =  2250  time[fs]= 2.25000
   N -0.714095428E+00 -0.119523198E+01  0.250016344E+01
   N  0.714095428E+00 -0.119523198E+01  0.250016344E+01
   C -0.698250018E+00  0.125741490E+01  0.250048922E+01
   C  0.698250018E+00  0.125741490E+01  0.250048922E+01
   C -0.134149800E+01  0.173973001E-01  0.249968458E+01
   C  0.134149800E+01  0.173973001E-01  0.249968458E+01
   H -0.133085541E+01  0.225990559E+01  0.249894427E+01
   H  0.133085541E+01  0.225990559E+01  0.249894427E+01
   H -0.254814218E+01 -0.865653510E-01  0.250090490E+01
   H  0.254814218E+01 -0.865653510E-01  0.250090490E+01
  Xx -0.112347425E-16 -0.118090788E+01 -0.847759113E+02
    11
 # iter =  2500  time[fs]= 2.50000
   N -0.722512759E+00 -0.120331673E+01  0.250019674E+01
   N  0.722512759E+00 -0.120331673E+01  0.250019674E+01
   C -0.700091517E+00  0.126020737E+01  0.250057936E+01
   C  0.700091517E+00  0.126020737E+01  0.250057936E+01
   C -0.134657774E+01  0.211589996E-01  0.249963642E+01
   C  0.134657774E+01  0.211589996E-01  0.249963642E+01
   H -0.134662326E+01  0.228460602E+01  0.249853792E+01
   H  0.134662326E+01  0.228460602E+01  0.249853792E+01
   H -0.258482415E+01 -0.878793659E-01  0.250115681E+01
   H  0.258482415E+01 -0.878793659E-01  0.250115681E+01
  Xx -0.127462980E-16 -0.118308871E+01 -0.964176854E+02
    11
 # iter =  2750  time[fs]= 2.75000
   N -0.731354681E+00 -0.121225303E+01  0.250019736E+01
   N  0.731354681E+00 -0.121225303E+01  0.250019736E+01
   C -0.702268481E+00  0.126337433E+01  0.250069813E+01
   C  0.702268481E+00  0.126337433E+01  0.250069813E+01
   C -0.135232736E+01  0.252416291E-01  0.249958111E+01
   C  0.135232736E+01  0.252416291E-01  0.249958111E+01
   H -0.136398736E+01  0.231164960E+01  0.249804333E+01
   H  0.136398736E+01  0.231164960E+01  0.249804333E+01
   H -0.262442247E+01 -0.892958480E-01  0.250170973E+01
   H  0.262442247E+01 -0.892958480E-01  0.250170973E+01
  Xx -0.142578140E-16 -0.118526954E+01 -0.108059459E+03
    11
 # iter =  3000  time[fs]= 3.00000
   N -0.740607764E+00 -0.122202602E+01  0.250023773E+01
   N  0.740607764E+00 -0.122202602E+01  0.250023773E+01
   C -0.704616530E+00  0.126695710E+01  0.250081857E+01
   C  0.704616530E+00  0.126695710E+01  0.250081857E+01
   C -0.135876534E+01  0.296320651E-01  0.249950315E+01
   C  0.135876534E+01  0.296320651E-01  0.249950315E+01
   H -0.138268737E+01  0.234090946E+01  0.249733162E+01
   H  0.138268737E+01  0.234090946E+01  0.249733162E+01
   H -0.266625985E+01 -0.908988117E-01  0.250227451E+01
   H  0.266625985E+01 -0.908988117E-01  0.250227451E+01
  Xx -0.157693383E-16 -0.118745036E+01 -0.119701233E+03
    11
 # iter =  3250  time[fs]= 3.25000
   N -0.750163087E+00 -0.123261200E+01  0.250026046E+01
   N  0.750163087E+00 -0.123261200E+01  0.250026046E+01
   C -0.707336876E+00  0.127095472E+01  0.250095102E+01
   C  0.707336876E+00  0.127095472E+01  0.250095102E+01
   C -0.136588102E+01  0.342067750E-01  0.249941741E+01
   C  0.136588102E+01  0.342067750E-01  0.249941741E+01
   H -0.140276124E+01  0.237261162E+01  0.249672472E+01
   H  0.140276124E+01  0.237261162E+01  0.249672472E+01
   H -0.270977804E+01 -0.925314181E-01  0.250288487E+01
   H  0.270977804E+01 -0.925314181E-01  0.250288487E+01
  Xx -0.172808687E-16 -0.118963119E+01 -0.131343008E+03
    11
 # iter =  3500  time[fs]= 3.50000
   N -0.760047736E+00 -0.124383472E+01  0.250029597E+01
   N  0.760047736E+00 -0.124383472E+01  0.250029597E+01
   C -0.710229807E+00  0.127547658E+01  0.250105647E+01
   C  0.710229807E+00  0.127547658E+01  0.250105647E+01
   C -0.137369313E+01  0.387703008E-01  0.249933942E+01
   C  0.137369313E+01  0.387703008E-01  0.249933942E+01
   H -0.142406027E+01  0.240652777E+01  0.249620505E+01
   H  0.142406027E+01  0.240652777E+01  0.249620505E+01
   H -0.275492171E+01 -0.942719782E-01  0.250354154E+01
   H  0.275492171E+01 -0.942719782E-01  0.250354154E+01
  Xx -0.187923539E-16 -0.119181202E+01 -0.142984782E+03
    11
 # iter =  3750  time[fs]= 3.75000
   N -0.770038841E+00 -0.125573908E+01  0.250031473E+01
   N  0.770038841E+00 -0.125573908E+01  0.250031473E+01
   C -0.713477468E+00  0.128047479E+01  0.250118764E+01
   C  0.713477468E+00  0.128047479E+01  0.250118764E+01
   C -0.138222904E+01  0.434610154E-01  0.249924448E+01
   C  0.138222904E+01  0.434610154E-01  0.249924448E+01
   H -0.144648795E+01  0.244209120E+01  0.249583513E+01
   H  0.144648795E+01  0.244209120E+01  0.249583513E+01
   H -0.280165566E+01 -0.960583299E-01  0.250417921E+01
   H  0.280165566E+01 -0.960583299E-01  0.250417921E+01
  Xx -0.203038080E-16 -0.119399284E+01 -0.154626556E+03
    11
 # iter =  4000  time[fs]= 4.00000
   N -0.780124572E+00 -0.126830574E+01  0.250034480E+01
   N  0.780124572E+00 -0.126830574E+01  0.250034480E+01
   C -0.717063409E+00  0.128600902E+01  0.250127668E+01
   C  0.717063409E+00  0.128600902E+01  0.250127668E+01
   C -0.139146101E+01  0.482551105E-01  0.249916942E+01
   C  0.139146101E+01  0.482551105E-01  0.249916942E+01
   H -0.146960514E+01  0.247866522E+01  0.249546592E+01
   H  0.146960514E+01  0.247866522E+01  0.249546592E+01
   H -0.284985438E+01 -0.977303560E-01  0.250495598E+01
   H  0.284985438E+01 -0.977303560E-01  0.250495598E+01
  Xx -0.218152647E-16 -0.119617367E+01 -0.166268330E+03
    11
 # iter =  4250  time[fs]= 4.25000
   N -0.790589295E+00 -0.128137903E+01  0.250039933E+01
   N  0.790589295E+00 -0.128137903E+01  0.250039933E+01
   C -0.720769180E+00  0.129200594E+01  0.250138060E+01
   C  0.720769180E+00  0.129200594E+01  0.250138060E+01
   C -0.140129736E+01  0.531672785E-01  0.249905418E+01
   C  0.140129736E+01  0.531672785E-01  0.249905418E+01
   H -0.149328241E+01  0.251625141E+01  0.249514626E+01
   H  0.149328241E+01  0.251625141E+01  0.249514626E+01
   H -0.289950882E+01 -0.996527526E-01  0.250558713E+01
   H  0.289950882E+01 -0.996527526E-01  0.250558713E+01
  Xx -0.233267233E-16 -0.119835450E+01 -0.177910104E+03
    11
 # iter =  4500  time[fs]= 4.50000
   N -0.801437090E+00 -0.129484206E+01  0.250049661E+01
   N  0.801437090E+00 -0.129484206E+01  0.250049661E+01
   C -0.724604188E+00  0.129832332E+01  0.250149442E+01
   C  0.724604188E+00  0.129832332E+01  0.250149442E+01
   C -0.141168884E+01  0.581219679E-01  0.249888075E+01
   C  0.141168884E+01  0.581219679E-01  0.249888075E+01
   H -0.151789419E+01  0.255527479E+01  0.249494086E+01
   H  0.151789419E+01  0.255527479E+01  0.249494086E+01
   H -0.295021181E+01 -0.101693526E+00  0.250607203E+01
   H  0.295021181E+01 -0.101693526E+00  0.250607203E+01
  Xx -0.248381875E-16 -0.120053532E+01 -0.189551878E+03
    11
 # iter =  4750  time[fs]= 4.75000
   N -0.812409017E+00 -0.130861798E+01  0.250059147E+01
   N  0.812409017E+00 -0.130861798E+01  0.250059147E+01
   C -0.728640328E+00  0.130510430E+01  0.250160923E+01
   C  0.728640328E+00  0.130510430E+01  0.250160923E+01
   C -0.142263197E+01  0.629101054E-01  0.249871373E+01
   C  0.142263197E+01  0.629101054E-01  0.249871373E+01
   H -0.154330341E+01  0.259608894E+01  0.249478898E+01
   H  0.154330341E+01  0.259608894E+01  0.249478898E+01
   H -0.300192120E+01 -0.104049609E+00  0.250664441E+01
   H  0.300192120E+01 -0.104049609E+00  0.250664441E+01
  Xx -0.263496458E-16 -0.120271615E+01 -0.201193652E+03
    11
 # iter =  5000  time[fs]= 5.00000
   N -0.823485239E+00 -0.132257546E+01  0.250066528E+01
   N  0.823485239E+00 -0.132257546E+01  0.250066528E+01
   C -0.732926446E+00  0.131236481E+01  0.250171670E+01
   C  0.732926446E+00  0.131236481E+01  0.250171670E+01
   C -0.143406614E+01  0.672684863E-01  0.249856337E+01
   C  0.143406614E+01  0.672684863E-01  0.249856337E+01
   H -0.156980699E+01  0.263879538E+01  0.249460270E+01
   H  0.156980699E+01  0.263879538E+01  0.249460270E+01
   H -0.305454104E+01 -0.106580175E+00  0.250736066E+01
   H  0.305454104E+01 -0.106580175E+00  0.250736066E+01
  Xx -0.278611148E-16 -0.120489698E+01 -0.212835426E+03
    11
 # iter =  5250  time[fs]= 5.25000
   N -0.834587457E+00 -0.133668065E+01  0.250072554E+01
   N  0.834587457E+00 -0.133668065E+01  0.250072554E+01
   C -0.737597544E+00  0.132002260E+01  0.250187218E+01
   C  0.737597544E+00  0.132002260E+01  0.250187218E+01
   C -0.144598653E+01  0.712844713E-01  0.249837818E+01
   C  0.144598653E+01  0.712844713E-01  0.249837818E+01
   H -0.159737232E+01  0.268332713E+01  0.249439439E+01
   H  0.159737232E+01  0.268332713E+01  0.249439439E+01
   H -0.310810377E+01 -0.109257671E+00  0.250804544E+01
   H  0.310810377E+01 -0.109257671E+00  0.250804544E+01
  Xx -0.293725939E-16 -0.120707780E+01 -0.224477200E+03
    11
 # iter =  5500  time[fs]= 5.50000
   N -0.845697917E+00 -0.135105739E+01  0.250079129E+01
   N  0.845697917E+00 -0.135105739E+01  0.250079129E+01
   C -0.742506932E+00  0.132807202E+01  0.250196590E+01
   C  0.742506932E+00  0.132807202E+01  0.250196590E+01
   C -0.145838737E+01  0.751827258E-01  0.249823324E+01
   C  0.145838737E+01  0.751827258E-01  0.249823324E+01
   H -0.162561700E+01  0.272898945E+01  0.249429629E+01
   H  0.162561700E+01  0.272898945E+01  0.249429629E+01
   H -0.316271983E+01 -0.112170166E+00  0.250872037E+01
   H  0.316271983E+01 -0.112170166E+00  0.250872037E+01
  Xx -0.308840635E-16 -0.120925863E+01 -0.236118974E+03
    11
 # iter =  5750  time[fs]= 5.75000
   N -0.857031468E+00 -0.136573168E+01  0.250084179E+01
   N  0.857031468E+00 -0.136573168E+01  0.250084179E+01
   C -0.747548405E+00  0.133641476E+01  0.250205285E+01
   C  0.747548405E+00  0.133641476E+01  0.250205285E+01
   C -0.147112339E+01  0.790907117E-01  0.249811007E+01
   C  0.147112339E+01  0.790907117E-01  0.249811007E+01
   H -0.165430873E+01  0.277537733E+01  0.249429872E+01
   H  0.165430873E+01  0.277537733E+01  0.249429872E+01
   H -0.321876710E+01 -0.115261154E+00  0.250942413E+01
   H  0.321876710E+01 -0.115261154E+00  0.250942413E+01
  Xx -0.323955343E-16 -0.121143946E+01 -0.247760748E+03
    11
 # iter =  6000  time[fs]= 6.00000
   N -0.868616754E+00 -0.138063649E+01  0.250092108E+01
   N  0.868616754E+00 -0.138063649E+01  0.250092108E+01
   C -0.752743793E+00  0.134500948E+01  0.250214675E+01
   C  0.752743793E+00  0.134500948E+01  0.250214675E+01
   C -0.148423245E+01  0.830516108E-01  0.249794910E+01
   C  0.148423245E+01  0.830516108E-01  0.249794910E+01
   H -0.168332140E+01  0.282233616E+01  0.249424098E+01
   H  0.168332140E+01  0.282233616E+01  0.249424098E+01
   H -0.327609943E+01 -0.118613326E+00  0.251015288E+01
   H  0.327609943E+01 -0.118613326E+00  0.251015288E+01
  Xx -0.339070067E-16 -0.121362028E+01 -0.259402522E+03
    11
 # iter =  6250  time[fs]= 6.25000
   N -0.880328010E+00 -0.139585539E+01  0.250101898E+01
   N  0.880328010E+00 -0.139585539E+01  0.250101898E+01
   C -0.758083830E+00  0.135386352E+01  0.250225243E+01
   C  0.758083830E+00  0.135386352E+01  0.250225243E+01
   C -0.149771313E+01  0.870110423E-01  0.249775673E+01
   C  0.149771313E+01  0.870110423E-01  0.249775673E+01
   H -0.171277455E+01  0.287006204E+01  0.249424212E+01
   H  0.171277455E+01  0.287006204E+01  0.249424212E+01
   H -0.333446886E+01 -0.122066037E+00  0.251075648E+01
   H  0.333446886E+01 -0.122066037E+00  0.251075648E+01
  Xx -0.354184806E-16 -0.121580111E+01 -0.271044296E+03
    11
 # iter =  6500  time[fs]= 6.50000
   N -0.892072839E+00 -0.141136483E+01  0.250114704E+01
   N  0.892072839E+00 -0.141136483E+01  0.250114704E+01
   C -0.763602940E+00  0.136301427E+01  0.250237886E+01
   C  0.763602940E+00  0.136301427E+01  0.250237886E+01
   C -0.151151708E+01  0.908454087E-01  0.249754519E+01
   C  0.151151708E+01  0.908454087E-01  0.249754519E+01
   H -0.174281508E+01  0.291882560E+01  0.249413009E+01
   H  0.174281508E+01  0.291882560E+01  0.249413009E+01
   H -0.339388749E+01 -0.125671053E+00  0.251127132E+01
   H  0.339388749E+01 -0.125671053E+00  0.251127132E+01
  Xx -0.369299618E-16 -0.121798194E+01 -0.282686070E+03
    11
 # iter =  6750  time[fs]= 6.75000
   N -0.903855055E+00 -0.142703396E+01  0.250126709E+01
   N  0.903855055E+00 -0.142703396E+01  0.250126709E+01
   C -0.769453734E+00  0.137247756E+01  0.250254544E+01
   C  0.769453734E+00  0.137247756E+01  0.250254544E+01
   C -0.152562081E+01  0.944524641E-01  0.249727239E+01
   C  0.152562081E+01  0.944524641E-01  0.249727239E+01
   H -0.177334323E+01  0.296852651E+01  0.249394619E+01
   H  0.177334323E+01  0.296852651E+01  0.249394619E+01
   H -0.345451290E+01 -0.129567772E+00  0.251171567E+01
   H  0.345451290E+01 -0.129567772E+00  0.251171567E+01
  Xx -0.384414387E-16 -0.122016276E+01 -0.294327844E+03
    11
 # iter =  7000  time[fs]= 7.00000
   N -0.915800902E+00 -0.144291577E+01  0.250138345E+01
   N  0.915800902E+00 -0.144291577E+01  0.250138345E+01
   C -0.775459040E+00  0.138222515E+01  0.250269879E+01
   C  0.775459040E+00  0.138222515E+01  0.250269879E+01
   C -0.153999997E+01  0.978792716E-01  0.249702820E+01
   C  0.153999997E+01  0.978792716E-01  0.249702820E+01
   H -0.180430663E+01  0.301904164E+01  0.249376522E+01
   H  0.180430663E+01  0.301904164E+01  0.249376522E+01
   H -0.351645433E+01 -0.133612200E+00  0.251217972E+01
   H  0.351645433E+01 -0.133612200E+00  0.251217972E+01
  Xx -0.399529194E-16 -0.122234359E+01 -0.305969618E+03
    11
 # iter =  7250  time[fs]= 7.25000
   N -0.927852426E+00 -0.145905950E+01  0.250148727E+01
   N  0.927852426E+00 -0.145905950E+01  0.250148727E+01
   C -0.781563038E+00  0.139221379E+01  0.250285957E+01
   C  0.781563038E+00  0.139221379E+01  0.250285957E+01
   C -0.155461663E+01  0.101260772E+00  0.249678815E+01
   C  0.155461663E+01  0.101260772E+00  0.249678815E+01
   H -0.183555986E+01  0.307013988E+01  0.249360911E+01
   H  0.183555986E+01  0.307013988E+01  0.249360911E+01
   H -0.357978636E+01 -0.137963997E+00  0.251272611E+01
   H  0.357978636E+01 -0.137963997E+00  0.251272611E+01
  Xx -0.414643892E-16 -0.122452442E+01 -0.317611393E+03
    11
 # iter =  7500  time[fs]= 7.50000
   N -0.940119695E+00 -0.147537008E+01  0.250155243E+01
   N  0.940119695E+00 -0.147537008E+01  0.250155243E+01
   C -0.787805767E+00  0.140236864E+01  0.250299398E+01
   C  0.787805767E+00  0.140236864E+01  0.250299398E+01
   C -0.156948033E+01  0.104540080E+00  0.249661480E+01
   C  0.156948033E+01  0.104540080E+00  0.249661480E+01
   H -0.186726382E+01  0.312198693E+01  0.249342189E+01
   H  0.186726382E+01  0.312198693E+01  0.249342189E+01
   H -0.364416859E+01 -0.142444213E+00  0.251328546E+01
   H  0.364416859E+01 -0.142444213E+00  0.251328546E+01
  Xx -0.429758566E-16 -0.122670524E+01 -0.329253167E+03
    11
 # iter =  7750  time[fs]= 7.75000
   N -0.952577935E+00 -0.149183781E+01  0.250161988E+01
   N  0.952577935E+00 -0.149183781E+01  0.250161988E+01
   C -0.794036072E+00  0.141276534E+01  0.250311981E+01
   C  0.794036072E+00  0.141276534E+01  0.250311981E+01
   C -0.158444816E+01  0.107652231E+00  0.249642638E+01
   C  0.158444816E+01  0.107652231E+00  0.249642638E+01
   H -0.189933725E+01  0.317460348E+01  0.249330287E+01
   H  0.189933725E+01  0.317460348E+01  0.249330287E+01
   H -0.371013616E+01 -0.147244873E+00  0.251382920E+01
   H  0.371013616E+01 -0.147244873E+00  0.251382920E+01
  Xx -0.444873262E-16 -0.122888607E+01 -0.340894941E+03
    11
 # iter =  8000  time[fs]= 8.00000
   N -0.965195383E+00 -0.150836576E+01  0.250169799E+01
   N  0.965195383E+00 -0.150836576E+01  0.250169799E+01
   C -0.800438706E+00  0.142342298E+01  0.250326023E+01
   C  0.800438706E+00  0.142342298E+01  0.250326023E+01
   C -0.159953592E+01  0.110541423E+00  0.249621702E+01
   C  0.159953592E+01  0.110541423E+00  0.249621702E+01
   H -0.193186938E+01  0.322788141E+01  0.249313703E+01
   H  0.193186938E+01  0.322788141E+01  0.249313703E+01
   H -0.377746749E+01 -0.152209667E+00  0.251439843E+01
   H  0.377746749E+01 -0.152209667E+00  0.251439843E+01
  Xx -0.459988021E-16 -0.123106690E+01 -0.352536715E+03
    11
 # iter =  8250  time[fs]= 8.25000
   N -0.977783180E+00 -0.152501628E+01  0.250178449E+01
   N  0.977783180E+00 -0.152501628E+01  0.250178449E+01
   C -0.807008913E+00  0.143427006E+01  0.250338136E+01
   C  0.807008913E+00  0.143427006E+01  0.250338136E+01
   C -0.161485550E+01  0.113268596E+00  0.249602334E+01
   C  0.161485550E+01  0.113268596E+00  0.249602334E+01
   H -0.196496005E+01  0.328211729E+01  0.249292297E+01
   H  0.196496005E+01  0.328211729E+01  0.249292297E+01
   H -0.384585931E+01 -0.157378539E+00  0.251496991E+01
   H  0.384585931E+01 -0.157378539E+00  0.251496991E+01
  Xx -0.475102816E-16 -0.123324772E+01 -0.364178489E+03
    11
 # iter =  8500  time[fs]= 8.50000
   N -0.990377112E+00 -0.154171940E+01  0.250184757E+01
   N  0.990377112E+00 -0.154171940E+01  0.250184757E+01
   C -0.813667936E+00  0.144533712E+01  0.250352477E+01
   C  0.813667936E+00  0.144533712E+01  0.250352477E+01
   C -0.163040327E+01  0.115828649E+00  0.249583144E+01
   C  0.163040327E+01  0.115828649E+00  0.249583144E+01
   H -0.199865768E+01  0.333729234E+01  0.249272890E+01
   H  0.199865768E+01  0.333729234E+01  0.249272890E+01
   H -0.391527386E+01 -0.162748253E+00  0.251551943E+01
   H  0.391527386E+01 -0.162748253E+00  0.251551943E+01
  Xx -0.490217614E-16 -0.123542855E+01 -0.375820263E+03
    11
 # iter =  8750  time[fs]= 8.75000
   N -0.100303780E+01 -0.155836203E+01  0.250189908E+01
   N  0.100303780E+01 -0.155836203E+01  0.250189908E+01
   C -0.820385632E+00  0.145660995E+01  0.250367295E+01
   C  0.820385632E+00  0.145660995E+01  0.250367295E+01
   C -0.164615976E+01  0.118154060E+00  0.249564624E+01
   C  0.164615976E+01  0.118154060E+00  0.249564624E+01
   H -0.203279248E+01  0.339330802E+01  0.249252765E+01
   H  0.203279248E+01  0.339330802E+01  0.249252765E+01
   H -0.398572507E+01 -0.168278717E+00  0.251606669E+01
   H  0.398572507E+01 -0.168278717E+00  0.251606669E+01
  Xx -0.505332408E-16 -0.123760937E+01 -0.387462037E+03
    11
 # iter =  9000  time[fs]= 9.00000
   N -0.101578166E+01 -0.157505847E+01  0.250197206E+01
   N  0.101578166E+01 -0.157505847E+01  0.250197206E+01
   C -0.827014383E+00  0.146801291E+01  0.250379076E+01
   C  0.827014383E+00  0.146801291E+01  0.250379076E+01
   C -0.166196695E+01  0.120392440E+00  0.249546248E+01
   C  0.166196695E+01  0.120392440E+00  0.249546248E+01
   H -0.206740167E+01  0.345021567E+01  0.249234114E+01
   H  0.206740167E+01  0.345021567E+01  0.249234114E+01
   H -0.405761016E+01 -0.174102412E+00  0.251658745E+01
   H  0.405761016E+01 -0.174102412E+00  0.251658745E+01
  Xx -0.520447245E-16 -0.123979020E+01 -0.399103811E+03
    11
 # iter =  9250  time[fs]= 9.25000
   N -0.102859796E+01 -0.159175466E+01  0.250201577E+01
   N  0.102859796E+01 -0.159175466E+01  0.250201577E+01
   C -0.833583356E+00  0.147949186E+01  0.250391978E+01
   C  0.833583356E+00  0.147949186E+01  0.250391978E+01
   C -0.167782102E+01  0.122612493E+00  0.249529111E+01
   C  0.167782102E+01  0.122612493E+00  0.249529111E+01
   H -0.210245202E+01  0.350795116E+01  0.249220896E+01
   H  0.210245202E+01  0.350795116E+01  0.249220896E+01
   H -0.413076995E+01 -0.180083501E+00  0.251709350E+01
   H  0.413076995E+01 -0.180083501E+00  0.251709350E+01
  Xx -0.535562103E-16 -0.124197103E+01 -0.410745585E+03
    11
 # iter =  9500  time[fs]= 9.50000
   N -0.104142966E+01 -0.160851204E+01  0.250204232E+01
   N  0.104142966E+01 -0.160851204E+01  0.250204232E+01
   C -0.840130150E+00  0.149103069E+01  0.250402018E+01
   C  0.840130150E+00  0.149103069E+01  0.250402018E+01
   C -0.169379132E+01  0.124874451E+00  0.249517215E+01
   C  0.169379132E+01  0.124874451E+00  0.249517215E+01
   H -0.213794513E+01  0.356647011E+01  0.249207269E+01
   H  0.213794513E+01  0.356647011E+01  0.249207269E+01
   H -0.420507407E+01 -0.186284207E+00  0.251761616E+01
   H  0.420507407E+01 -0.186284207E+00  0.251761616E+01
  Xx -0.550676952E-16 -0.124415185E+01 -0.422387359E+03
    11
 # iter =  9750  time[fs]= 9.75000
   N -0.105425226E+01 -0.162541935E+01  0.250206366E+01
   N  0.105425226E+01 -0.162541935E+01  0.250206366E+01
   C -0.846603451E+00  0.150259931E+01  0.250410485E+01
   C  0.846603451E+00  0.150259931E+01  0.250410485E+01
   C -0.170980249E+01  0.127212802E+00  0.249506741E+01
   C  0.170980249E+01  0.127212802E+00  0.249506741E+01
   H -0.217394797E+01  0.362593259E+01  0.249190956E+01
   H  0.217394797E+01  0.362593259E+01  0.249190956E+01
   H -0.428065646E+01 -0.192705584E+00  0.251817477E+01
   H  0.428065646E+01 -0.192705584E+00  0.251817477E+01
  Xx -0.565791754E-16 -0.124633268E+01 -0.434029133E+03
    11
 # iter = 10000  time[fs]=10.00000
   N -0.106703890E+01 -0.164244158E+01  0.250209874E+01
   N  0.106703890E+01 -0.164244158E+01  0.250209874E+01
   C -0.853042718E+00  0.151426835E+01  0.250419072E+01
   C  0.853042718E+00  0.151426835E+01  0.250419072E+01
   C -0.172587774E+01  0.129561032E+00  0.249495654E+01
   C  0.172587774E+01  0.129561032E+00  0.249495654E+01
   H -0.221042832E+01  0.368619515E+01  0.249177698E+01
   H  0.221042832E+01  0.368619515E+01  0.249177698E+01
   H -0.435743642E+01 -0.199311044E+00  0.251873935E+01
   H  0.435743642E+01 -0.199311044E+00  0.251873935E+01
  Xx -0.580906555E-16 -0.124851351E+01 -0.445670907E+03
    11
 # iter = 10250  time[fs]=10.25000
   N -0.107979213E+01 -0.165954627E+01  0.250211965E+01
   N  0.107979213E+01 -0.165954627E+01  0.250211965E+01
   C -0.859434431E+00  0.152600367E+01  0.250429148E+01
   C  0.859434431E+00  0.152600367E+01  0.250429148E+01
   C -0.174203842E+01  0.131828511E+00  0.249483153E+01
   C  0.174203842E+01  0.131828511E+00  0.249483153E+01
   H -0.224749736E+01  0.374745839E+01  0.249164334E+01
   H  0.224749736E+01  0.374745839E+01  0.249164334E+01
   H -0.443533677E+01 -0.206173978E+00  0.251934831E+01
   H  0.443533677E+01 -0.206173978E+00  0.251934831E+01
  Xx -0.596021356E-16 -0.125069433E+01 -0.457312681E+03
    11
 # iter = 10500  time[fs]=10.50000
   N -0.109246378E+01 -0.167676888E+01  0.250213514E+01
   N  0.109246378E+01 -0.167676888E+01  0.250213514E+01
   C -0.865874459E+00  0.153783356E+01  0.250437463E+01
   C  0.865874459E+00  0.153783356E+01  0.250437463E+01
   C -0.175823898E+01  0.134016804E+00  0.249473028E+01
   C  0.175823898E+01  0.134016804E+00  0.249473028E+01
   H -0.228518089E+01  0.380974971E+01  0.249147617E+01
   H  0.228518089E+01  0.380974971E+01  0.249147617E+01
   H -0.451439231E+01 -0.213246682E+00  0.252002986E+01
   H  0.451439231E+01 -0.213246682E+00  0.252002986E+01
  Xx -0.611136157E-16 -0.125287516E+01 -0.468954455E+03
    11
 # iter = 10750  time[fs]=10.75000
   N -0.110505823E+01 -0.169410388E+01  0.250214563E+01
   N  0.110505823E+01 -0.169410388E+01  0.250214563E+01
   C -0.872272075E+00  0.154973227E+01  0.250442877E+01
   C  0.872272075E+00  0.154973227E+01  0.250442877E+01
   C -0.177449841E+01  0.136156314E+00  0.249464630E+01
   C  0.177449841E+01  0.136156314E+00  0.249464630E+01
   H -0.232337405E+01  0.387282647E+01  0.249134640E+01
   H  0.232337405E+01  0.387282647E+01  0.249134640E+01
   H -0.459456740E+01 -0.220576268E+00  0.252071223E+01
   H  0.459456740E+01 -0.220576268E+00  0.252071223E+01
  Xx -0.626250958E-16 -0.125505599E+01 -0.480596229E+03
    11
 # iter = 11000  time[fs]=11.00000
   N -0.111759471E+01 -0.171154498E+01  0.250215588E+01
   N  0.111759471E+01 -0.171154498E+01  0.250215588E+01
   C -0.878731378E+00  0.156160032E+01  0.250450074E+01
   C  0.878731378E+00  0.156160032E+01  0.250450074E+01
   C -0.179080584E+01  0.138333694E+00  0.249455009E+01
   C  0.179080584E+01  0.138333694E+00  0.249455009E+01
   H -0.236202238E+01  0.393677623E+01  0.249124049E+01
   H  0.236202238E+01  0.393677623E+01  0.249124049E+01
   H -0.467580149E+01 -0.228061790E+00  0.252140072E+01
   H  0.467580149E+01 -0.228061790E+00  0.252140072E+01
  Xx -0.641365758E-16 -0.125723681E+01 -0.492238003E+03
    11
 # iter = 11250  time[fs]=11.25000
   N -0.113008852E+01 -0.172910436E+01  0.250218660E+01
   N  0.113008852E+01 -0.172910436E+01  0.250218660E+01
   C -0.885320253E+00  0.157341099E+01  0.250460011E+01
   C  0.885320253E+00  0.157341099E+01  0.250460011E+01
   C -0.180708251E+01  0.140563179E+00  0.249441526E+01
   C  0.180708251E+01  0.140563179E+00  0.249441526E+01
   H -0.240125763E+01  0.400167592E+01  0.249115791E+01
   H  0.240125763E+01  0.400167592E+01  0.249115791E+01
   H -0.475810230E+01 -0.235771313E+00  0.252207237E+01
   H  0.475810230E+01 -0.235771313E+00  0.252207237E+01
  Xx -0.656480559E-16 -0.125941764E+01 -0.503879777E+03
    11
 # iter = 11500  time[fs]=11.50000
   N -0.114257136E+01 -0.174677296E+01  0.250223240E+01
   N  0.114257136E+01 -0.174677296E+01  0.250223240E+01
   C -0.891876516E+00  0.158523344E+01  0.250467792E+01
   C  0.891876516E+00  0.158523344E+01  0.250467792E+01
   C -0.182334959E+01  0.142781861E+00  0.249426444E+01
   C  0.182334959E+01  0.142781861E+00  0.249426444E+01
   H -0.244090023E+01  0.406741635E+01  0.249112878E+01
   H  0.244090023E+01  0.406741635E+01  0.249112878E+01
   H -0.484149023E+01 -0.243688275E+00  0.252276034E+01
   H  0.484149023E+01 -0.243688275E+00  0.252276034E+01
  Xx -0.671595360E-16 -0.126159847E+01 -0.515521552E+03
    11
 # iter = 11750  time[fs]=11.75000
   N -0.115512713E+01 -0.176445233E+01  0.250227551E+01
   N  0.115512713E+01 -0.176445233E+01  0.250227551E+01
   C -0.898356988E+00  0.159705526E+01  0.250472730E+01
   C  0.898356988E+00  0.159705526E+01  0.250472730E+01
   C -0.183959695E+01  0.145008037E+00  0.249413614E+01
   C  0.183959695E+01  0.145008037E+00  0.249413614E+01
   H -0.248092018E+01  0.413386878E+01  0.249110504E+01
   H  0.248092018E+01  0.413386878E+01  0.249110504E+01
   H -0.492591821E+01 -0.251767284E+00  0.252347685E+01
   H  0.492591821E+01 -0.251767284E+00  0.252347685E+01
  Xx -0.686710161E-16 -0.126377929E+01 -0.527163326E+03
    11
 # iter = 12000  time[fs]=12.00000
   N -0.116779303E+01 -0.178210477E+01  0.250231423E+01
   N  0.116779303E+01 -0.178210477E+01  0.250231423E+01
   C -0.904832866E+00  0.160882560E+01  0.250480970E+01
   C  0.904832866E+00  0.160882560E+01  0.250480970E+01
   C -0.185577710E+01  0.147201004E+00  0.249398030E+01
   C  0.185577710E+01  0.147201004E+00  0.249398030E+01
   H -0.252140794E+01  0.420108287E+01  0.249106333E+01
   H  0.252140794E+01  0.420108287E+01  0.249106333E+01
   H -0.501143193E+01 -0.260036005E+00  0.252416978E+01
   H  0.501143193E+01 -0.260036005E+00  0.252416978E+01
  Xx -0.701824962E-16 -0.126596012E+01 -0.538805100E+03
    11
 # iter = 12250  time[fs]=12.25000
   N -0.118057128E+01 -0.179974096E+01  0.250236253E+01
   N  0.118057128E+01 -0.179974096E+01  0.250236253E+01
   C -0.911410300E+00  0.162051740E+01  0.250490409E+01
   C  0.911410300E+00  0.162051740E+01  0.250490409E+01
   C -0.187190186E+01  0.149428978E+00  0.249382249E+01
   C  0.187190186E+01  0.149428978E+00  0.249382249E+01
   H -0.256233747E+01  0.426912307E+01  0.249103025E+01
   H  0.256233747E+01  0.426912307E+01  0.249103025E+01
   H -0.509792723E+01 -0.268499842E+00  0.252488863E+01
   H  0.509792723E+01 -0.268499842E+00  0.252488863E+01
  Xx -0.716939763E-16 -0.126814095E+01 -0.550446874E+03
    11
 # iter = 12500  time[fs]=12.50000
   N -0.119346060E+01 -0.181733013E+01  0.250242391E+01
   N  0.119346060E+01 -0.181733013E+01  0.250242391E+01
   C -0.917906744E+00  0.163221615E+01  0.250495722E+01
   C  0.917906744E+00  0.163221615E+01  0.250495722E+01
   C -0.188800341E+01  0.151615866E+00  0.249369623E+01
   C  0.188800341E+01  0.151615866E+00  0.249369623E+01
   H -0.260375774E+01  0.433796934E+01  0.249102205E+01
   H  0.260375774E+01  0.433796934E+01  0.249102205E+01
   H -0.518536033E+01 -0.277203819E+00  0.252561851E+01
   H  0.518536033E+01 -0.277203819E+00  0.252561851E+01
  Xx -0.732054564E-16 -0.127032177E+01 -0.562088648E+03
    11
 # iter = 12750  time[fs]=12.75000
   N -0.120647668E+01 -0.183484866E+01  0.250244977E+01
   N  0.120647668E+01 -0.183484866E+01  0.250244977E+01
   C -0.924389618E+00  0.164391241E+01  0.250504264E+01
   C  0.924389618E+00  0.164391241E+01  0.250504264E+01
   C -0.190411375E+01  0.153761097E+00  0.249355706E+01
   C  0.190411375E+01  0.153761097E+00  0.249355706E+01
   H -0.264559071E+01  0.440760526E+01  0.249099651E+01
   H  0.264559071E+01  0.440760526E+01  0.249099651E+01
   H -0.527365527E+01 -0.286118310E+00  0.252635704E+01
   H  0.527365527E+01 -0.286118310E+00  0.252635704E+01
  Xx -0.747169365E-16 -0.127250260E+01 -0.573730422E+03
    11
 # iter = 13000  time[fs]=13.00000
   N -0.121955235E+01 -0.185229154E+01  0.250246490E+01
   N  0.121955235E+01 -0.185229154E+01  0.250246490E+01
   C -0.930853180E+00  0.165560934E+01  0.250511175E+01
   C  0.930853180E+00  0.165560934E+01  0.250511175E+01
   C -0.192019806E+01  0.155804160E+00  0.249343286E+01
   C  0.192019806E+01  0.155804160E+00  0.249343286E+01
   H -0.268784676E+01  0.447792716E+01  0.249092399E+01
   H  0.268784676E+01  0.447792716E+01  0.249092399E+01
   H -0.536288108E+01 -0.295218511E+00  0.252711581E+01
   H  0.536288108E+01 -0.295218511E+00  0.252711581E+01
  Xx -0.762284166E-16 -0.127468343E+01 -0.585372196E+03
    11
 # iter = 13250  time[fs]=13.25000
   N -0.123268030E+01 -0.186965935E+01  0.250249242E+01
   N  0.123268030E+01 -0.186965935E+01  0.250249242E+01
   C -0.937329555E+00  0.166727097E+01  0.250515487E+01
   C  0.937329555E+00  0.166727097E+01  0.250515487E+01
   C -0.193626970E+01  0.157848567E+00  0.249333259E+01
   C  0.193626970E+01  0.157848567E+00  0.249333259E+01
   H -0.273054473E+01  0.454897629E+01  0.249084737E+01
   H  0.273054473E+01  0.454897629E+01  0.249084737E+01
   H -0.545291849E+01 -0.304497932E+00  0.252787604E+01
   H  0.545291849E+01 -0.304497932E+00  0.252787604E+01
  Xx -0.777398967E-16 -0.127686425E+01 -0.597013970E+03
    11
 # iter = 13500  time[fs]=13.50000
   N -0.124584602E+01 -0.188703044E+01  0.250248119E+01
   N  0.124584602E+01 -0.188703044E+01  0.250248119E+01
   C -0.943814339E+00  0.167880710E+01  0.250522287E+01
   C  0.943814339E+00  0.167880710E+01  0.250522287E+01
   C -0.195233882E+01  0.159902481E+00  0.249324351E+01
   C  0.195233882E+01  0.159902481E+00  0.249324351E+01
   H -0.277374077E+01  0.462078552E+01  0.249080646E+01
   H  0.277374077E+01  0.462078552E+01  0.249080646E+01
   H -0.554375898E+01 -0.313975663E+00  0.252866171E+01
   H  0.554375898E+01 -0.313975663E+00  0.252866171E+01
  Xx -0.792513768E-16 -0.127904508E+01 -0.608655744E+03
    11
 # iter = 13750  time[fs]=13.75000
   N -0.125900240E+01 -0.190441215E+01  0.250245216E+01
   N  0.125900240E+01 -0.190441215E+01  0.250245216E+01
   C -0.950339684E+00  0.169031531E+01  0.250524800E+01
   C  0.950339684E+00  0.169031531E+01  0.250524800E+01
   C -0.196839040E+01  0.162030850E+00  0.249320592E+01
   C  0.196839040E+01  0.162030850E+00  0.249320592E+01
   H -0.281730661E+01  0.469323824E+01  0.249074638E+01
   H  0.281730661E+01  0.469323824E+01  0.249074638E+01
   H -0.563534911E+01 -0.323584105E+00  0.252948021E+01
   H  0.563534911E+01 -0.323584105E+00  0.252948021E+01
  Xx -0.807628569E-16 -0.128122591E+01 -0.620297518E+03
    11
 # iter = 14000  time[fs]=14.00000
   N -0.127211603E+01 -0.192190758E+01  0.250242015E+01
   N  0.127211603E+01 -0.192190758E+01  0.250242015E+01
   C -0.956839586E+00  0.170176471E+01  0.250525974E+01
   C  0.956839586E+00  0.170176471E+01  0.250525974E+01
   C -0.198445123E+01  0.164165320E+00  0.249318143E+01
   C  0.198445123E+01  0.164165320E+00  0.249318143E+01
   H -0.286123383E+01  0.476634161E+01  0.249064693E+01
   H  0.286123383E+01  0.476634161E+01  0.249064693E+01
   H -0.572768277E+01 -0.333357675E+00  0.253029769E+01
   H  0.572768277E+01 -0.333357675E+00  0.253029769E+01
  Xx -0.822743369E-16 -0.128340673E+01 -0.631939292E+03
    11
 # iter = 14250  time[fs]=14.25000
   N -0.128520404E+01 -0.193944729E+01  0.250238783E+01
   N  0.128520404E+01 -0.193944729E+01  0.250238783E+01
   C -0.963337577E+00  0.171314249E+01  0.250530155E+01
   C  0.963337577E+00  0.171314249E+01  0.250530155E+01
   C -0.200049372E+01  0.166401079E+00  0.249312179E+01
   C  0.200049372E+01  0.166401079E+00  0.249312179E+01
   H -0.290554420E+01  0.484001306E+01  0.249055649E+01
   H  0.290554420E+01  0.484001306E+01  0.249055649E+01
   H -0.582073724E+01 -0.343271442E+00  0.253112180E+01
   H  0.582073724E+01 -0.343271442E+00  0.253112180E+01
  Xx -0.837858170E-16 -0.128558756E+01 -0.643581066E+03
    11
 # iter = 14500  time[fs]=14.50000
   N -0.129823305E+01 -0.195705936E+01  0.250236320E+01
   N  0.129823305E+01 -0.195705936E+01  0.250236320E+01
   C -0.969857006E+00  0.172446905E+01  0.250536710E+01
   C  0.969857006E+00  0.172446905E+01  0.250536710E+01
   C -0.201650539E+01  0.168614707E+00  0.249303453E+01
   C  0.201650539E+01  0.168614707E+00  0.249303453E+01
   H -0.295023956E+01  0.491432440E+01  0.249044669E+01
   H  0.295023956E+01  0.491432440E+01  0.249044669E+01
   H -0.591450475E+01 -0.353344862E+00  0.253194512E+01
   H  0.591450475E+01 -0.353344862E+00  0.253194512E+01
  Xx -0.852972971E-16 -0.128776839E+01 -0.655222840E+03
    11
 # iter = 14750  time[fs]=14.75000
   N -0.131124528E+01 -0.197471295E+01  0.250233505E+01
   N  0.131124528E+01 -0.197471295E+01  0.250233505E+01
   C -0.976261769E+00  0.173578470E+01  0.250539121E+01
   C  0.976261769E+00  0.173578470E+01  0.250539121E+01
   C -0.203250443E+01  0.170854291E+00  0.249297750E+01
   C  0.203250443E+01  0.170854291E+00  0.249297750E+01
   H -0.299533072E+01  0.498923710E+01  0.249030290E+01
   H  0.299533072E+01  0.498923710E+01  0.249030290E+01
   H -0.600891675E+01 -0.363512407E+00  0.253276407E+01
   H  0.600891675E+01 -0.363512407E+00  0.253276407E+01
  Xx -0.868087772E-16 -0.128994921E+01 -0.666864614E+03
    11
 # iter = 15000  time[fs]=15.00000
   N -0.132420906E+01 -0.199242966E+01  0.250229333E+01
   N  0.132420906E+01 -0.199242966E+01  0.250229333E+01
   C -0.982558559E+00  0.174708192E+01  0.250542243E+01
   C  0.982558559E+00  0.174708192E+01  0.250542243E+01
   C -0.204849261E+01  0.173077657E+00  0.249292822E+01
   C  0.204849261E+01  0.173077657E+00  0.249292822E+01
   H -0.304074822E+01  0.506471231E+01  0.249016871E+01
   H  0.304074822E+01  0.506471231E+01  0.249016871E+01
   H -0.610399226E+01 -0.373838674E+00  0.253358796E+01
   H  0.610399226E+01 -0.373838674E+00  0.253358796E+01
  Xx -0.883202573E-16 -0.129213004E+01 -0.678506388E+03
    11
 # iter = 15250  time[fs]=15.25000
   N -0.133711177E+01 -0.201015421E+01  0.250224306E+01
   N  0.133711177E+01 -0.201015421E+01  0.250224306E+01
   C -0.988804809E+00  0.175828518E+01  0.250546042E+01
   C  0.988804809E+00  0.175828518E+01  0.250546042E+01
   C -0.206444734E+01  0.175359455E+00  0.249287447E+01
   C  0.206444734E+01  0.175359455E+00  0.249287447E+01
   H -0.308650461E+01  0.514075063E+01  0.249001175E+01
   H  0.308650461E+01  0.514075063E+01  0.249001175E+01
   H -0.619970090E+01 -0.384319274E+00  0.253440861E+01
   H  0.619970090E+01 -0.384319274E+00  0.253440861E+01
  Xx -0.898317374E-16 -0.129431087E+01 -0.690148162E+03
    11
 # iter = 15500  time[fs]=15.50000
   N -0.134996563E+01 -0.202787624E+01  0.250218996E+01
   N  0.134996563E+01 -0.202787624E+01  0.250218996E+01
   C -0.995066004E+00  0.176941231E+01  0.250546800E+01
   C  0.995066004E+00  0.176941231E+01  0.250546800E+01
   C -0.208031200E+01  0.177732129E+00  0.249285091E+01
   C  0.208031200E+01  0.177732129E+00  0.249285091E+01
   H -0.313258894E+01  0.521730607E+01  0.248983928E+01
   H  0.313258894E+01  0.521730607E+01  0.248983928E+01
   H -0.629604330E+01 -0.394935365E+00  0.253523778E+01
   H  0.629604330E+01 -0.394935365E+00  0.253523778E+01
  Xx -0.913432175E-16 -0.129649169E+01 -0.701789936E+03
    11
 # iter = 15750  time[fs]=15.75000
   N -0.136279247E+01 -0.204559728E+01  0.250211580E+01
   N  0.136279247E+01 -0.204559728E+01  0.250211580E+01
   C -0.100132891E+01  0.178045490E+01  0.250549535E+01
   C  0.100132891E+01  0.178045490E+01  0.250549535E+01
   C -0.209613224E+01  0.180163097E+00  0.249282090E+01
   C  0.209613224E+01  0.180163097E+00  0.249282090E+01
   H -0.317900034E+01  0.529441367E+01  0.248968010E+01
   H  0.317900034E+01  0.529441367E+01  0.248968010E+01
   H -0.639298686E+01 -0.405715973E+00  0.253607638E+01
   H  0.639298686E+01 -0.405715973E+00  0.253607638E+01
  Xx -0.928546976E-16 -0.129867252E+01 -0.713431711E+03
    11
 # iter = 16000  time[fs]=16.00000
   N -0.137561868E+01 -0.206327126E+01  0.250205247E+01
   N  0.137561868E+01 -0.206327126E+01  0.250205247E+01
   C -0.100753992E+01  0.179142355E+01  0.250552042E+01
   C  0.100753992E+01  0.179142355E+01  0.250552042E+01
   C -0.211190478E+01  0.182609035E+00  0.249278131E+01
   C  0.211190478E+01  0.182609035E+00  0.249278131E+01
   H -0.322574148E+01  0.537204192E+01  0.248952071E+01
   H  0.322574148E+01  0.537204192E+01  0.248952071E+01
   H -0.649052351E+01 -0.416654211E+00  0.253690210E+01
   H  0.649052351E+01 -0.416654211E+00  0.253690210E+01
  Xx -0.943661777E-16 -0.130085335E+01 -0.725073485E+03
    11
 # iter = 16250  time[fs]=16.25000
   N -0.138847546E+01 -0.208085446E+01  0.250198697E+01
   N  0.138847546E+01 -0.208085446E+01  0.250198697E+01
   C -0.101360009E+01  0.180235146E+01  0.250554164E+01
   C  0.101360009E+01  0.180235146E+01  0.250554164E+01
   C -0.212763124E+01  0.185043202E+00  0.249276001E+01
   C  0.212763124E+01  0.185043202E+00  0.249276001E+01
   H -0.327281061E+01  0.545016367E+01  0.248933148E+01
   H  0.327281061E+01  0.545016367E+01  0.248933148E+01
   H -0.658861558E+01 -0.427704292E+00  0.253772901E+01
   H  0.658861558E+01 -0.427704292E+00  0.253772901E+01
  Xx -0.958776578E-16 -0.130303417E+01 -0.736715259E+03
    11
 # iter = 16500  time[fs]=16.50000
   N -0.140141137E+01 -0.209835713E+01  0.250191436E+01
   N  0.140141137E+01 -0.209835713E+01  0.250191436E+01
   C -0.101952684E+01  0.181320814E+01  0.250555961E+01
   C  0.101952684E+01  0.181320814E+01  0.250555961E+01
   C -0.214332835E+01  0.187425563E+00  0.249274099E+01
   C  0.214332835E+01  0.187425563E+00  0.249274099E+01
   H -0.332015195E+01  0.552878248E+01  0.248914324E+01
   H  0.332015195E+01  0.552878248E+01  0.248914324E+01
   H -0.668725727E+01 -0.438875868E+00  0.253856614E+01
   H  0.668725727E+01 -0.438875868E+00  0.253856614E+01
  Xx -0.973891379E-16 -0.130521500E+01 -0.748357033E+03
    11
 # iter = 16750  time[fs]=16.75000
   N -0.141444114E+01 -0.211582867E+01  0.250185173E+01
   N  0.141444114E+01 -0.211582867E+01  0.250185173E+01
   C -0.102533378E+01  0.182403732E+01  0.250553641E+01
   C  0.102533378E+01  0.182403732E+01  0.250553641E+01
   C -0.215895997E+01  0.189831534E+00  0.249275670E+01
   C  0.215895997E+01  0.189831534E+00  0.249275670E+01
   H -0.336777758E+01  0.560788037E+01  0.248896552E+01
   H  0.336777758E+01  0.560788037E+01  0.248896552E+01
   H -0.678641855E+01 -0.450187812E+00  0.253940662E+01
   H  0.678641855E+01 -0.450187812E+00  0.253940662E+01
  Xx -0.989006180E-16 -0.130739583E+01 -0.759998807E+03
    11
 # iter = 17000  time[fs]=17.00000
   N -0.142757021E+01 -0.213327890E+01  0.250178602E+01
   N  0.142757021E+01 -0.213327890E+01  0.250178602E+01
   C -0.103113460E+01  0.183477837E+01  0.250556149E+01
   C  0.103113460E+01  0.183477837E+01  0.250556149E+01
   C -0.217453190E+01  0.192283580E+00  0.249273765E+01
   C  0.217453190E+01  0.192283580E+00  0.249273765E+01
   H -0.341571795E+01  0.568744411E+01  0.248877556E+01
   H  0.341571795E+01  0.568744411E+01  0.248877556E+01
   H -0.688608946E+01 -0.461632804E+00  0.254025200E+01
   H  0.688608946E+01 -0.461632804E+00  0.254025200E+01
  Xx -0.100412098E-15 -0.130957665E+01 -0.771640581E+03
    11
 # iter = 17250  time[fs]=17.25000
   N -0.144080574E+01 -0.215075914E+01  0.250172681E+01
   N  0.144080574E+01 -0.215075914E+01  0.250172681E+01
   C -0.103694241E+01  0.184542376E+01  0.250558990E+01
   C  0.103694241E+01  0.184542376E+01  0.250558990E+01
   C -0.218998727E+01  0.194789130E+00  0.249269108E+01
   C  0.218998727E+01  0.194789130E+00  0.249269108E+01
   H -0.346393934E+01  0.576744321E+01  0.248858462E+01
   H  0.346393934E+01  0.576744321E+01  0.248858462E+01
   H -0.698627426E+01 -0.473218288E+00  0.254110651E+01
   H  0.698627426E+01 -0.473218288E+00  0.254110651E+01
  Xx -0.101923578E-15 -0.131175748E+01 -0.783282355E+03
    11
 # iter = 17500  time[fs]=17.50000
   N -0.145413136E+01 -0.216827747E+01  0.250168537E+01
   N  0.145413136E+01 -0.216827747E+01  0.250168537E+01
   C -0.104280001E+01  0.185598661E+01  0.250557196E+01
   C  0.104280001E+01  0.185598661E+01  0.250557196E+01
   C -0.220538007E+01  0.197391300E+00  0.249266941E+01
   C  0.220538007E+01  0.197391300E+00  0.249266941E+01
   H -0.351240170E+01  0.584788736E+01  0.248842045E+01
   H  0.351240170E+01  0.584788736E+01  0.248842045E+01
   H -0.708692769E+01 -0.484925485E+00  0.254196695E+01
   H  0.708692769E+01 -0.484925485E+00  0.254196695E+01
  Xx -0.103435057E-15 -0.131393831E+01 -0.794924129E+03
    11
 # iter = 17750  time[fs]=17.75000
   N -0.146753109E+01 -0.218585090E+01  0.250165390E+01
   N  0.146753109E+01 -0.218585090E+01  0.250165390E+01
   C -0.104862216E+01  0.186645227E+01  0.250556893E+01
   C  0.104862216E+01  0.186645227E+01  0.250556893E+01
   C -0.222072408E+01  0.200098012E+00  0.249266802E+01
   C  0.222072408E+01  0.200098012E+00  0.249266802E+01
   H -0.356108494E+01  0.592876166E+01  0.248825680E+01
   H  0.356108494E+01  0.592876166E+01  0.248825680E+01
   H -0.718807009E+01 -0.496738657E+00  0.254282991E+01
   H  0.718807009E+01 -0.496738657E+00  0.254282991E+01
  Xx -0.104946535E-15 -0.131611913E+01 -0.806565903E+03
    11
 # iter = 18000  time[fs]=18.00000
   N -0.148097931E+01 -0.220349990E+01  0.250161280E+01
   N  0.148097931E+01 -0.220349990E+01  0.250161280E+01
   C -0.105441945E+01  0.187686069E+01  0.250555791E+01
   C  0.105441945E+01  0.187686069E+01  0.250555791E+01
   C -0.223601269E+01  0.202842537E+00  0.249266201E+01
   C  0.223601269E+01  0.202842537E+00  0.249266201E+01
   H -0.361003199E+01  0.601003426E+01  0.248807544E+01
   H  0.361003199E+01  0.601003426E+01  0.248807544E+01
   H -0.728966356E+01 -0.508652692E+00  0.254369856E+01
   H  0.728966356E+01 -0.508652692E+00  0.254369856E+01
  Xx -0.106458014E-15 -0.131829996E+01 -0.818207677E+03
    11
 # iter = 18250  time[fs]=18.25000
   N -0.149445300E+01 -0.222122169E+01  0.250154392E+01
   N  0.149445300E+01 -0.222122169E+01  0.250154392E+01
   C -0.106012929E+01  0.188725167E+01  0.250556208E+01
   C  0.106012929E+01  0.188725167E+01  0.250556208E+01
   C -0.225126655E+01  0.205617913E+00  0.249265544E+01
   C  0.225126655E+01  0.205617913E+00  0.249265544E+01
   H -0.365922270E+01  0.609169339E+01  0.248789595E+01
   H  0.365922270E+01  0.609169339E+01  0.248789595E+01
   H -0.739171402E+01 -0.520692114E+00  0.254457738E+01
   H  0.739171402E+01 -0.520692114E+00  0.254457738E+01
  Xx -0.107969493E-15 -0.132048078E+01 -0.829849451E+03
    11
 # iter = 18500  time[fs]=18.50000
   N -0.150795473E+01 -0.223897228E+01  0.250146677E+01
   N  0.150795473E+01 -0.223897228E+01  0.250146677E+01
   C -0.106579333E+01  0.189754291E+01  0.250556612E+01
   C  0.106579333E+01  0.189754291E+01  0.250556612E+01
   C -0.226647089E+01  0.208449395E+00  0.249266496E+01
   C  0.226647089E+01  0.208449395E+00  0.249266496E+01
   H -0.370863689E+01  0.617373826E+01  0.248772930E+01
   H  0.370863689E+01  0.617373826E+01  0.248772930E+01
   H -0.749418364E+01 -0.532840585E+00  0.254546753E+01
   H  0.749418364E+01 -0.532840585E+00  0.254546753E+01
  Xx -0.109480971E-15 -0.132266161E+01 -0.841491225E+03
    11
 # iter = 18750  time[fs]=18.75000
   N -0.152143489E+01 -0.225673527E+01  0.250139354E+01
   N  0.152143489E+01 -0.225673527E+01  0.250139354E+01
   C -0.107136004E+01  0.190779390E+01  0.250552472E+01
   C  0.107136004E+01  0.190779390E+01  0.250552472E+01
   C -0.228164922E+01  0.211381867E+00  0.249270221E+01
   C  0.228164922E+01  0.211381867E+00  0.249270221E+01
   H -0.375826533E+01  0.625613327E+01  0.248756262E+01
   H  0.375826533E+01  0.625613327E+01  0.248756262E+01
   H -0.759708345E+01 -0.545078575E+00  0.254636277E+01
   H  0.759708345E+01 -0.545078575E+00  0.254636277E+01
  Xx -0.110992450E-15 -0.132484244E+01 -0.853132999E+03
    11
 # iter = 19000  time[fs]=19.00000
   N -0.153487763E+01 -0.227450505E+01  0.250132247E+01
   N  0.153487763E+01 -0.227450505E+01  0.250132247E+01
   C -0.107691845E+01  0.191795558E+01  0.250549862E+01
   C  0.107691845E+01  0.191795558E+01  0.250549862E+01
   C -0.229678645E+01  0.214359326E+00  0.249274230E+01
   C  0.229678645E+01  0.214359326E+00  0.249274230E+01
   H -0.380813726E+01  0.633890144E+01  0.248738531E+01
   H  0.380813726E+01  0.633890144E+01  0.248738531E+01
   H -0.770039507E+01 -0.557426519E+00  0.254726402E+01
   H  0.770039507E+01 -0.557426519E+00  0.254726402E+01
  Xx -0.112503928E-15 -0.132702326E+01 -0.864774773E+03
    11
 # iter = 19250  time[fs]=19.25000
   N -0.154826453E+01 -0.229227104E+01  0.250124591E+01
   N  0.154826453E+01 -0.229227104E+01  0.250124591E+01
   C -0.108246577E+01  0.192806859E+01  0.250551328E+01
   C  0.108246577E+01  0.192806859E+01  0.250551328E+01
   C -0.231186722E+01  0.217424780E+00  0.249274427E+01
   C  0.231186722E+01  0.217424780E+00  0.249274427E+01
   H -0.385820750E+01  0.642203691E+01  0.248720446E+01
   H  0.385820750E+01  0.642203691E+01  0.248720446E+01
   H -0.780412826E+01 -0.569891189E+00  0.254817292E+01
   H  0.780412826E+01 -0.569891189E+00  0.254817292E+01
  Xx -0.114015407E-15 -0.132920409E+01 -0.876416547E+03
    11
 # iter = 19500  time[fs]=19.50000
   N -0.156159070E+01 -0.231000749E+01  0.250116472E+01
   N  0.156159070E+01 -0.231000749E+01  0.250116472E+01
   C -0.108805340E+01  0.193810963E+01  0.250551812E+01
   C  0.108805340E+01  0.193810963E+01  0.250551812E+01
   C -0.232687924E+01  0.220517888E+00  0.249272380E+01
   C  0.232687924E+01  0.220517888E+00  0.249272380E+01
   H -0.390849592E+01  0.650553544E+01  0.248702411E+01
   H  0.390849592E+01  0.650553544E+01  0.248702411E+01
   H -0.790826377E+01 -0.582463365E+00  0.254908007E+01
   H  0.790826377E+01 -0.582463365E+00  0.254908007E+01
  Xx -0.115526886E-15 -0.133138492E+01 -0.888058321E+03
    11
 # iter = 19750  time[fs]=19.75000
   N -0.157486970E+01 -0.232769783E+01  0.250108874E+01
   N  0.157486970E+01 -0.232769783E+01  0.250108874E+01
   C -0.109361857E+01  0.194812146E+01  0.250554000E+01
   C  0.109361857E+01  0.194812146E+01  0.250554000E+01
   C -0.234181988E+01  0.223673373E+00  0.249270404E+01
   C  0.234181988E+01  0.223673373E+00  0.249270404E+01
   H -0.395900018E+01  0.658938328E+01  0.248684478E+01
   H  0.395900018E+01  0.658938328E+01  0.248684478E+01
   H -0.801280917E+01 -0.595137066E+00  0.254998881E+01
   H  0.801280917E+01 -0.595137066E+00  0.254998881E+01
  Xx -0.117038364E-15 -0.133356574E+01 -0.899700095E+03
    11
 # iter = 20000  time[fs]=20.00000
   N -0.158808517E+01 -0.234536289E+01  0.250101822E+01
   N  0.158808517E+01 -0.234536289E+01  0.250101822E+01
   C -0.109908088E+01  0.195804750E+01  0.250555089E+01
   C  0.109908088E+01  0.195804750E+01  0.250555089E+01
   C -0.235679062E+01  0.226907119E+00  0.249270371E+01
   C  0.235679062E+01  0.226907119E+00  0.249270371E+01
   H -0.400971060E+01  0.667358041E+01  0.248665493E+01
   H  0.400971060E+01  0.667358041E+01  0.248665493E+01
   H -0.811775776E+01 -0.607909962E+00  0.255090315E+01
   H  0.811775776E+01 -0.607909962E+00  0.255090315E+01
  Xx -0.118549843E-15 -0.133574657E+01 -0.911341869E+03
    11
 # iter = 20250  time[fs]=20.25000
   N -0.160125329E+01 -0.236299076E+01  0.250095442E+01
   N  0.160125329E+01 -0.236299076E+01  0.250095442E+01
   C -0.110446607E+01  0.196793574E+01  0.250555014E+01
   C  0.110446607E+01  0.196793574E+01  0.250555014E+01
   C -0.237172897E+01  0.230163396E+00  0.249267542E+01
   C  0.237172897E+01  0.230163396E+00  0.249267542E+01
   H -0.406059707E+01  0.675810811E+01  0.248645230E+01
   H  0.406059707E+01  0.675810811E+01  0.248645230E+01
   H -0.822310695E+01 -0.620789917E+00  0.255181601E+01
   H  0.822310695E+01 -0.620789917E+00  0.255181601E+01
  Xx -0.120061321E-15 -0.133792740E+01 -0.922983644E+03
    11
 # iter = 20500  time[fs]=20.50000
   N -0.161440073E+01 -0.238059639E+01  0.250089263E+01
   N  0.161440073E+01 -0.238059639E+01  0.250089263E+01
   C -0.110984153E+01  0.197780508E+01  0.250558255E+01
   C  0.110984153E+01  0.197780508E+01  0.250558255E+01
   C -0.238662061E+01  0.233431748E+00  0.249261854E+01
   C  0.238662061E+01  0.233431748E+00  0.249261854E+01
   H -0.411170627E+01  0.684296247E+01  0.248626813E+01
   H  0.411170627E+01  0.684296247E+01  0.248626813E+01
   H -0.832885451E+01 -0.633783750E+00  0.255273367E+01
   H  0.832885451E+01 -0.633783750E+00  0.255273367E+01
  Xx -0.121572800E-15 -0.134010822E+01 -0.934625418E+03
    11
 # iter = 20750  time[fs]=20.75000
   N -0.162753766E+01 -0.239820921E+01  0.250082574E+01
   N  0.162753766E+01 -0.239820921E+01  0.250082574E+01
   C -0.111512865E+01  0.198760798E+01  0.250560809E+01
   C  0.111512865E+01  0.198760798E+01  0.250560809E+01
   C -0.240149289E+01  0.236723316E+00  0.249258156E+01
   C  0.240149289E+01  0.236723316E+00  0.249258156E+01
   H -0.416302467E+01  0.692813815E+01  0.248608096E+01
   H  0.416302467E+01  0.692813815E+01  0.248608096E+01
   H -0.843500221E+01 -0.646890838E+00  0.255365485E+01
   H  0.843500221E+01 -0.646890838E+00  0.255365485E+01
  Xx -0.123084279E-15 -0.134228905E+01 -0.946267192E+03
    11
 # iter = 21000  time[fs]=21.00000
   N -0.164068248E+01 -0.241582529E+01  0.250076117E+01
   N  0.164068248E+01 -0.241582529E+01  0.250076117E+01
   C -0.112036573E+01  0.199738127E+01  0.250561162E+01
   C  0.112036573E+01  0.199738127E+01  0.250561162E+01
   C -0.241631914E+01  0.240029910E+00  0.249254689E+01
   C  0.241631914E+01  0.240029910E+00  0.249254689E+01
   H -0.421451230E+01  0.701364579E+01  0.248586846E+01
   H  0.421451230E+01  0.701364579E+01  0.248586846E+01
   H -0.854154559E+01 -0.660106270E+00  0.255457607E+01
   H  0.854154559E+01 -0.660106270E+00  0.255457607E+01
  Xx -0.124595757E-15 -0.134446988E+01 -0.957908966E+03
    11
 # iter = 21250  time[fs]=21.25000
   N -0.165385911E+01 -0.243347423E+01  0.250070478E+01
   N  0.165385911E+01 -0.243347423E+01  0.250070478E+01
   C -0.112553551E+01  0.200712988E+01  0.250560524E+01
   C  0.112553551E+01  0.200712988E+01  0.250560524E+01
   C -0.243113688E+01  0.243328928E+00  0.249252070E+01
   C  0.243113688E+01  0.243328928E+00  0.249252070E+01
   H -0.426619508E+01  0.709945516E+01  0.248566199E+01
   H  0.426619508E+01  0.709945516E+01  0.248566199E+01
   H -0.864846744E+01 -0.673424679E+00  0.255550097E+01
   H  0.864846744E+01 -0.673424679E+00  0.255550097E+01
  Xx -0.126107236E-15 -0.134665070E+01 -0.969550740E+03
    11
 # iter = 21500  time[fs]=21.50000
   N -0.166708574E+01 -0.245116512E+01  0.250065341E+01
   N  0.166708574E+01 -0.245116512E+01  0.250065341E+01
   C -0.113066576E+01  0.201683753E+01  0.250560371E+01
   C  0.113066576E+01  0.201683753E+01  0.250560371E+01
   C -0.244592280E+01  0.246678649E+00  0.249251318E+01
   C  0.244592280E+01  0.246678649E+00  0.249251318E+01
   H -0.431806295E+01  0.718555125E+01  0.248545656E+01
   H  0.431806295E+01  0.718555125E+01  0.248545656E+01
   H -0.875576969E+01 -0.686836120E+00  0.255642661E+01
   H  0.875576969E+01 -0.686836120E+00  0.255642661E+01
  Xx -0.127618715E-15 -0.134883153E+01 -0.981192514E+03
    11
 # iter = 21750  time[fs]=21.75000
   N -0.168038449E+01 -0.246888297E+01  0.250059495E+01
   N  0.168038449E+01 -0.246888297E+01  0.250059495E+01
   C -0.113575917E+01  0.202648384E+01  0.250561360E+01
   C  0.113575917E+01  0.202648384E+01  0.250561360E+01
   C -0.246068140E+01  0.250082247E+00  0.249246341E+01
   C  0.246068140E+01  0.250082247E+00  0.249246341E+01
   H -0.437010284E+01  0.727194789E+01  0.248523603E+01
   H  0.437010284E+01  0.727194789E+01  0.248523603E+01
   H -0.886344573E+01 -0.700343087E+00  0.255735096E+01
   H  0.886344573E+01 -0.700343087E+00  0.255735096E+01
  Xx -0.129130193E-15 -0.135101236E+01 -0.992834288E+03
    11
 # iter = 22000  time[fs]=22.00000
   N -0.169375405E+01 -0.248664195E+01  0.250053244E+01
   N  0.169375405E+01 -0.248664195E+01  0.250053244E+01
   C -0.114082658E+01  0.203607164E+01  0.250563010E+01
   C  0.114082658E+01  0.203607164E+01  0.250563010E+01
   C -0.247537584E+01  0.253532496E+00  0.249240548E+01
   C  0.247537584E+01  0.253532496E+00  0.249240548E+01
   H -0.442232084E+01  0.735865272E+01  0.248501615E+01
   H  0.442232084E+01  0.735865272E+01  0.248501615E+01
   H -0.897149642E+01 -0.713952811E+00  0.255827644E+01
   H  0.897149642E+01 -0.713952811E+00  0.255827644E+01
  Xx -0.130641671E-15 -0.135319318E+01 -0.100447606E+04
    11
 # iter = 22250  time[fs]=22.25000
   N -0.170718729E+01 -0.250442724E+01  0.250047707E+01
   N  0.170718729E+01 -0.250442724E+01  0.250047707E+01
   C -0.114587201E+01  0.204559264E+01  0.250565591E+01
   C  0.114587201E+01  0.204559264E+01  0.250565591E+01
   C -0.249003634E+01  0.257036383E+00  0.249235718E+01
   C  0.249003634E+01  0.257036383E+00  0.249235718E+01
   H -0.447472661E+01  0.744565704E+01  0.248480427E+01
   H  0.447472661E+01  0.744565704E+01  0.248480427E+01
   H -0.907991172E+01 -0.727668345E+00  0.255920405E+01
   H  0.907991172E+01 -0.727668345E+00  0.255920405E+01
  Xx -0.132153124E-15 -0.135537401E+01 -0.101611784E+04
    11
 # iter = 22500  time[fs]=22.50000
   N -0.172069217E+01 -0.252222204E+01  0.250042537E+01
   N  0.172069217E+01 -0.252222204E+01  0.250042537E+01
   C -0.115089381E+01  0.205503182E+01  0.250566653E+01
   C  0.115089381E+01  0.205503182E+01  0.250566653E+01
   C -0.250465612E+01  0.260584379E+00  0.249230917E+01
   C  0.250465612E+01  0.260584379E+00  0.249230917E+01
   H -0.452731160E+01  0.753293852E+01  0.248458604E+01
   H  0.452731160E+01  0.753293852E+01  0.248458604E+01
   H -0.918868090E+01 -0.741487754E+00  0.256013403E+01
   H  0.918868090E+01 -0.741487754E+00  0.256013403E+01
  Xx -0.133664575E-15 -0.135755484E+01 -0.102775961E+04
    11
 # iter = 22750  time[fs]=22.75000
   N -0.173424837E+01 -0.254000313E+01  0.250036234E+01
   N  0.173424837E+01 -0.254000313E+01  0.250036234E+01
   C -0.115584560E+01  0.206440056E+01  0.250566519E+01
   C  0.115584560E+01  0.206440056E+01  0.250566519E+01
   C -0.251923416E+01  0.264233914E+00  0.249228256E+01
   C  0.251923416E+01  0.264233914E+00  0.249228256E+01
   H -0.458007416E+01  0.762051384E+01  0.248436287E+01
   H  0.458007416E+01  0.762051384E+01  0.248436287E+01
   H -0.929779890E+01 -0.755398553E+00  0.256106718E+01
   H  0.929779890E+01 -0.755398553E+00  0.256106718E+01
  Xx -0.135176026E-15 -0.135973566E+01 -0.103940138E+04
    11
 # iter = 23000  time[fs]=23.00000
   N -0.174784089E+01 -0.255774136E+01  0.250029775E+01
   N  0.174784089E+01 -0.255774136E+01  0.250029775E+01
   C -0.116072845E+01  0.207367226E+01  0.250568412E+01
   C  0.116072845E+01  0.207367226E+01  0.250568412E+01
   C -0.253377307E+01  0.267940731E+00  0.249223161E+01
   C  0.253377307E+01  0.267940731E+00  0.249223161E+01
   H -0.463301057E+01  0.770836011E+01  0.248414988E+01
   H  0.463301057E+01  0.770836011E+01  0.248414988E+01
   H -0.940725747E+01 -0.769397007E+00  0.256200226E+01
   H  0.940725747E+01 -0.769397007E+00  0.256200226E+01
  Xx -0.136687477E-15 -0.136191649E+01 -0.105104316E+04
    11
 # iter = 23250  time[fs]=23.25000
   N -0.176144704E+01 -0.257542849E+01  0.250023493E+01
   N  0.176144704E+01 -0.257542849E+01  0.250023493E+01
   C -0.116556932E+01  0.208289237E+01  0.250570670E+01
   C  0.116556932E+01  0.208289237E+01  0.250570670E+01
   C -0.254822936E+01  0.271730949E+00  0.249216933E+01
   C  0.254822936E+01  0.271730949E+00  0.249216933E+01
   H -0.468611520E+01  0.779646526E+01  0.248393387E+01
   H  0.468611520E+01  0.779646526E+01  0.248393387E+01
   H -0.951705248E+01 -0.783484213E+00  0.256294001E+01
   H  0.951705248E+01 -0.783484213E+00  0.256294001E+01
  Xx -0.138198927E-15 -0.136409732E+01 -0.106268493E+04
    11
 # iter = 23500  time[fs]=23.50000
   N -0.177505763E+01 -0.259307233E+01  0.250017360E+01
   N  0.177505763E+01 -0.259307233E+01  0.250017360E+01
   C -0.117037377E+01  0.209202678E+01  0.250572745E+01
   C  0.117037377E+01  0.209202678E+01  0.250572745E+01
   C -0.256266170E+01  0.275550208E+00  0.249212430E+01
   C  0.256266170E+01  0.275550208E+00  0.249212430E+01
   H -0.473940074E+01  0.788485905E+01  0.248370474E+01
   H  0.473940074E+01  0.788485905E+01  0.248370474E+01
   H -0.962717380E+01 -0.797667313E+00  0.256388281E+01
   H  0.962717380E+01 -0.797667313E+00  0.256388281E+01
  Xx -0.139710378E-15 -0.136627814E+01 -0.107432671E+04
    11
 # iter = 23750  time[fs]=23.75000
   N -0.178864278E+01 -0.261068208E+01  0.250011103E+01
   N  0.178864278E+01 -0.261068208E+01  0.250011103E+01
   C -0.117513754E+01  0.210112969E+01  0.250573911E+01
   C  0.117513754E+01  0.210112969E+01  0.250573911E+01
   C -0.257700582E+01  0.279420505E+00  0.249207335E+01
   C  0.257700582E+01  0.279420505E+00  0.249207335E+01
   H -0.479286386E+01  0.797353747E+01  0.248347397E+01
   H  0.479286386E+01  0.797353747E+01  0.248347397E+01
   H -0.973762412E+01 -0.811947898E+00  0.256483037E+01
   H  0.973762412E+01 -0.811947898E+00  0.256483037E+01
  Xx -0.141221829E-15 -0.136845897E+01 -0.108596848E+04
    11
 # iter = 24000  time[fs]=24.00000
   N -0.180219108E+01 -0.262827127E+01  0.250004417E+01
   N  0.180219108E+01 -0.262827127E+01  0.250004417E+01
   C -0.117987359E+01  0.211016303E+01  0.250572889E+01
   C  0.117987359E+01  0.211016303E+01  0.250572889E+01
   C -0.259134277E+01  0.283284683E+00  0.249204053E+01
   C  0.259134277E+01  0.283284683E+00  0.249204053E+01
   H -0.484650901E+01  0.806248550E+01  0.248324340E+01
   H  0.484650901E+01  0.806248550E+01  0.248324340E+01
   H -0.984839206E+01 -0.826325347E+00  0.256578178E+01
   H  0.984839206E+01 -0.826325347E+00  0.256578178E+01
  Xx -0.142733280E-15 -0.137063980E+01 -0.109761025E+04
    11
 # iter = 24250  time[fs]=24.25000
   N -0.181569449E+01 -0.264587758E+01  0.249997867E+01
   N  0.181569449E+01 -0.264587758E+01  0.249997867E+01
   C -0.118457037E+01  0.211916772E+01  0.250572287E+01
   C  0.118457037E+01  0.211916772E+01  0.250572287E+01
   C -0.260558779E+01  0.287223197E+00  0.249201282E+01
   C  0.260558779E+01  0.287223197E+00  0.249201282E+01
   H -0.490032502E+01  0.815170471E+01  0.248301084E+01
   H  0.490032502E+01  0.815170471E+01  0.248301084E+01
   H -0.995948135E+01 -0.840793049E+00  0.256673569E+01
   H  0.995948135E+01 -0.840793049E+00  0.256673569E+01
  Xx -0.144244730E-15 -0.137282062E+01 -0.110925203E+04
    11
 # iter = 24500  time[fs]=24.50000
   N -0.182915428E+01 -0.266351836E+01  0.249991503E+01
   N  0.182915428E+01 -0.266351836E+01  0.249991503E+01
   C -0.118927260E+01  0.212810176E+01  0.250573437E+01
   C  0.118927260E+01  0.212810176E+01  0.250573437E+01
   C -0.261981633E+01  0.291193728E+00  0.249197343E+01
   C  0.261981633E+01  0.291193728E+00  0.249197343E+01
   H -0.495431276E+01  0.824119837E+01  0.248277701E+01
   H  0.495431276E+01  0.824119837E+01  0.248277701E+01
   H -0.100708823E+02 -0.855352148E+00  0.256769185E+01
   H  0.100708823E+02 -0.855352148E+00  0.256769185E+01
  Xx -0.145756181E-15 -0.137500145E+01 -0.112089380E+04
    11
 # iter = 24750  time[fs]=24.75000
   N -0.184257500E+01 -0.268119906E+01  0.249985034E+01
   N  0.184257500E+01 -0.268119906E+01  0.249985034E+01
   C -0.119398318E+01  0.213697906E+01  0.250575619E+01
   C  0.119398318E+01  0.213697906E+01  0.250575619E+01
   C -0.263397631E+01  0.295237992E+00  0.249191163E+01
   C  0.263397631E+01  0.295237992E+00  0.249191163E+01
   H -0.500847096E+01  0.833096076E+01  0.248254248E+01
   H  0.500847096E+01  0.833096076E+01  0.248254248E+01
   H -0.101825923E+02 -0.870003025E+00  0.256865044E+01
   H  0.101825923E+02 -0.870003025E+00  0.256865044E+01
  Xx -0.147267632E-15 -0.137718228E+01 -0.113253558E+04
    11
 # iter = 25000  time[fs]=25.00000
   N -0.185594117E+01 -0.269894522E+01  0.249977494E+01
   N  0.185594117E+01 -0.269894522E+01  0.249977494E+01
   C -0.119870525E+01  0.214579390E+01  0.250578342E+01
   C  0.119870525E+01  0.214579390E+01  0.250578342E+01
   C -0.264808769E+01  0.299322204E+00  0.249185575E+01
   C  0.264808769E+01  0.299322204E+00  0.249185575E+01
   H -0.506280474E+01  0.842099521E+01  0.248230838E+01
   H  0.506280474E+01  0.842099521E+01  0.248230838E+01
   H -0.102946046E+02 -0.884746424E+00  0.256961171E+01
   H  0.102946046E+02 -0.884746424E+00  0.256961171E+01
  Xx -0.148779083E-15 -0.137936310E+01 -0.114417735E+04
    11
 # iter = 25250  time[fs]=25.25000
   N -0.186928284E+01 -0.271676277E+01  0.249969667E+01
   N  0.186928284E+01 -0.271676277E+01  0.249969667E+01
   C -0.120344746E+01  0.215456022E+01  0.250579855E+01
   C  0.120344746E+01  0.215456022E+01  0.250579855E+01
   C -0.266215007E+01  0.303480435E+00  0.249181360E+01
   C  0.266215007E+01  0.303480435E+00  0.249181360E+01
   H -0.511731163E+01  0.851129979E+01  0.248207041E+01
   H  0.511731163E+01  0.851129979E+01  0.248207041E+01
   H -0.104069141E+02 -0.899581785E+00  0.257057511E+01
   H  0.104069141E+02 -0.899581785E+00  0.257057511E+01
  Xx -0.150290533E-15 -0.138154393E+01 -0.115581912E+04
    11
 # iter = 25500  time[fs]=25.50000
   N -0.188262959E+01 -0.273462285E+01  0.249961973E+01
   N  0.188262959E+01 -0.273462285E+01  0.249961973E+01
   C -0.120820452E+01  0.216326641E+01  0.250580163E+01
   C  0.120820452E+01  0.216326641E+01  0.250580163E+01
   C -0.267615400E+01  0.307671232E+00  0.249178861E+01
   C  0.267615400E+01  0.307671232E+00  0.249178861E+01
   H -0.517199347E+01  0.860186845E+01  0.248182826E+01
   H  0.517199347E+01  0.860186845E+01  0.248182826E+01
   H -0.105195151E+02 -0.914507425E+00  0.257154069E+01
   H  0.105195151E+02 -0.914507425E+00  0.257154069E+01
  Xx -0.151801984E-15 -0.138372476E+01 -0.116746090E+04
    11
 # iter = 25750  time[fs]=25.75000
   N -0.189599206E+01 -0.275251632E+01  0.249954565E+01
   N  0.189599206E+01 -0.275251632E+01  0.249954565E+01
   C -0.121295974E+01  0.217191755E+01  0.250579557E+01
   C  0.121295974E+01  0.217191755E+01  0.250579557E+01
   C -0.269009947E+01  0.311940634E+00  0.249178075E+01
   C  0.269009947E+01  0.311940634E+00  0.249178075E+01
   H -0.522684689E+01  0.869269785E+01  0.248158451E+01
   H  0.522684689E+01  0.869269785E+01  0.248158451E+01
   H -0.106324038E+02 -0.929520512E+00  0.257250872E+01
   H  0.106324038E+02 -0.929520512E+00  0.257250872E+01
  Xx -0.153313440E-15 -0.138590558E+01 -0.117910267E+04
    11
 # iter = 26000  time[fs]=26.00000
   N -0.190938054E+01 -0.277041975E+01  0.249946158E+01
   N  0.190938054E+01 -0.277041975E+01  0.249946158E+01
   C -0.121772238E+01  0.218051904E+01  0.250579339E+01
   C  0.121772238E+01  0.218051904E+01  0.250579339E+01
   C -0.270401208E+01  0.316253359E+00  0.249176628E+01
   C  0.270401208E+01  0.316253359E+00  0.249176628E+01
   H -0.528187078E+01  0.878378488E+01  0.248133908E+01
   H  0.528187078E+01  0.878378488E+01  0.248133908E+01
   H -0.107455732E+02 -0.944620096E+00  0.257347928E+01
   H  0.107455732E+02 -0.944620096E+00  0.257347928E+01
  Xx -0.154824924E-15 -0.138808641E+01 -0.119074445E+04
    11
 # iter = 26250  time[fs]=26.25000
   N -0.192283791E+01 -0.278830316E+01  0.249937586E+01
   N  0.192283791E+01 -0.278830316E+01  0.249937586E+01
   C -0.122249023E+01  0.218904182E+01  0.250580804E+01
   C  0.122249023E+01  0.218904182E+01  0.250580804E+01
   C -0.271787217E+01  0.320647129E+00  0.249172791E+01
   C  0.271787217E+01  0.320647129E+00  0.249172791E+01
   H -0.533706118E+01  0.887512415E+01  0.248109323E+01
   H  0.533706118E+01  0.887512415E+01  0.248109323E+01
   H -0.108590181E+02 -0.959803906E+00  0.257445249E+01
   H  0.108590181E+02 -0.959803906E+00  0.257445249E+01
  Xx -0.156336407E-15 -0.139026724E+01 -0.120238622E+04
    11
 # iter = 26500  time[fs]=26.50000
   N -0.193636871E+01 -0.280616041E+01  0.249929368E+01
   N  0.193636871E+01 -0.280616041E+01  0.249929368E+01
   C -0.122724276E+01  0.219751144E+01  0.250582481E+01
   C  0.122724276E+01  0.219751144E+01  0.250582481E+01
   C -0.273169588E+01  0.325092077E+00  0.249170362E+01
   C  0.273169588E+01  0.325092077E+00  0.249170362E+01
   H -0.539241606E+01  0.896671208E+01  0.248084746E+01
   H  0.539241606E+01  0.896671208E+01  0.248084746E+01
   H -0.109727329E+02 -0.975071476E+00  0.257542836E+01
   H  0.109727329E+02 -0.975071476E+00  0.257542836E+01
  Xx -0.157847875E-15 -0.139244806E+01 -0.121402800E+04
    11
 # iter = 26750  time[fs]=26.75000
   N -0.194996090E+01 -0.282398617E+01  0.249921706E+01
   N  0.194996090E+01 -0.282398617E+01  0.249921706E+01
   C -0.123200786E+01  0.220591705E+01  0.250585175E+01
   C  0.123200786E+01  0.220591705E+01  0.250585175E+01
   C -0.274548502E+01  0.329583924E+00  0.249166653E+01
   C  0.274548502E+01  0.329583924E+00  0.249166653E+01
   H -0.544793487E+01  0.905854477E+01  0.248060124E+01
   H  0.544793487E+01  0.905854477E+01  0.248060124E+01
   H -0.110867112E+02 -0.990421560E+00  0.257640638E+01
   H  0.110867112E+02 -0.990421560E+00  0.257640638E+01
  Xx -0.159359344E-15 -0.139462889E+01 -0.122566977E+04
    11
 # iter = 27000  time[fs]=27.00000
   N -0.196361390E+01 -0.284176619E+01  0.249913242E+01
   N  0.196361390E+01 -0.284176619E+01  0.249913242E+01
   C -0.123670943E+01  0.221429510E+01  0.250585350E+01
   C  0.123670943E+01  0.221429510E+01  0.250585350E+01
   C -0.275923795E+01  0.334144773E+00  0.249163966E+01
   C  0.275923795E+01  0.334144773E+00  0.249163966E+01
   H -0.550361005E+01  0.915061472E+01  0.248035291E+01
   H  0.550361005E+01  0.915061472E+01  0.248035291E+01
   H -0.112009500E+02 -0.100585133E+01  0.257738626E+01
   H  0.112009500E+02 -0.100585133E+01  0.257738626E+01
  Xx -0.160870813E-15 -0.139680971E+01 -0.123731154E+04
    11
 # iter = 27250  time[fs]=27.25000
   N -0.197732031E+01 -0.285950343E+01  0.249904620E+01
   N  0.197732031E+01 -0.285950343E+01  0.249904620E+01
   C -0.124141541E+01  0.222260979E+01  0.250586414E+01
   C  0.124141541E+01  0.222260979E+01  0.250586414E+01
   C -0.277294111E+01  0.338713906E+00  0.249162853E+01
   C  0.277294111E+01  0.338713906E+00  0.249162853E+01
   H -0.555944678E+01  0.924292308E+01  0.248010329E+01
   H  0.555944678E+01  0.924292308E+01  0.248010329E+01
   H -0.113154425E+02 -0.102136233E+01  0.257836846E+01
   H  0.113154425E+02 -0.102136233E+01  0.257836846E+01
  Xx -0.162382292E-15 -0.139899054E+01 -0.124895332E+04
    11
 # iter = 27500  time[fs]=27.50000
   N -0.199106662E+01 -0.287722506E+01  0.249896763E+01
   N  0.199106662E+01 -0.287722506E+01  0.249896763E+01
   C -0.124606099E+01  0.223090031E+01  0.250586741E+01
   C  0.124606099E+01  0.223090031E+01  0.250586741E+01
   C -0.278663530E+01  0.343339817E+00  0.249161126E+01
   C  0.278663530E+01  0.343339817E+00  0.249161126E+01
   H -0.561543773E+01  0.933546372E+01  0.247985225E+01
   H  0.561543773E+01  0.933546372E+01  0.247985225E+01
   H -0.114301865E+02 -0.103695271E+01  0.257935266E+01
   H  0.114301865E+02 -0.103695271E+01  0.257935266E+01
  Xx -0.163893803E-15 -0.140117137E+01 -0.126059509E+04
    11
 # iter = 27750  time[fs]=27.75000
   N -0.200482633E+01 -0.289496013E+01  0.249889322E+01
   N  0.200482633E+01 -0.289496013E+01  0.249889322E+01
   C -0.125067406E+01  0.223914461E+01  0.250587541E+01
   C  0.125067406E+01  0.223914461E+01  0.250587541E+01
   C -0.280026969E+01  0.347986160E+00  0.249158672E+01
   C  0.280026969E+01  0.347986160E+00  0.249158672E+01
   H -0.567158310E+01  0.942823458E+01  0.247960007E+01
   H  0.567158310E+01  0.942823458E+01  0.247960007E+01
   H -0.115451768E+02 -0.105262254E+01  0.258033900E+01
   H  0.115451768E+02 -0.105262254E+01  0.258033900E+01
  Xx -0.165405315E-15 -0.140335219E+01 -0.127223687E+04
    11
 # iter = 28000  time[fs]=28.00000
   N -0.201857417E+01 -0.291273152E+01  0.249881745E+01
   N  0.201857417E+01 -0.291273152E+01  0.249881745E+01
   C -0.125526971E+01  0.224735270E+01  0.250590953E+01
   C  0.125526971E+01  0.224735270E+01  0.250590953E+01
   C -0.281388251E+01  0.352638482E+00  0.249154412E+01
   C  0.281388251E+01  0.352638482E+00  0.249154412E+01
   H -0.572787958E+01  0.952123132E+01  0.247934704E+01
   H  0.572787958E+01  0.952123132E+01  0.247934704E+01
   H -0.116604077E+02 -0.106836967E+01  0.258132751E+01
   H  0.116604077E+02 -0.106836967E+01  0.258132751E+01
  Xx -0.166916826E-15 -0.140553302E+01 -0.128387864E+04
    11
 # iter = 28250  time[fs]=28.25000
   N -0.203229708E+01 -0.293054940E+01  0.249873798E+01
   N  0.203229708E+01 -0.293054940E+01  0.249873798E+01
   C -0.125982420E+01  0.225551641E+01  0.250594616E+01
   C  0.125982420E+01  0.225551641E+01  0.250594616E+01
   C -0.282744368E+01  0.357375979E+00  0.249149285E+01
   C  0.282744368E+01  0.357375979E+00  0.249149285E+01
   H -0.578431670E+01  0.961444388E+01  0.247909306E+01
   H  0.578431670E+01  0.961444388E+01  0.247909306E+01
   H -0.117758774E+02 -0.108418932E+01  0.258231796E+01
   H  0.117758774E+02 -0.108418932E+01  0.258231796E+01
  Xx -0.168428337E-15 -0.140771385E+01 -0.129552041E+04
    11
 # iter = 28500  time[fs]=28.50000
   N -0.204598769E+01 -0.294843341E+01  0.249866862E+01
   N  0.204598769E+01 -0.294843341E+01  0.249866862E+01
   C -0.126436505E+01  0.226360688E+01  0.250598834E+01
   C  0.126436505E+01  0.226360688E+01  0.250598834E+01
   C -0.284096679E+01  0.362137945E+00  0.249143384E+01
   C  0.284096679E+01  0.362137945E+00  0.249143384E+01
   H -0.584089484E+01  0.970787032E+01  0.247883778E+01
   H  0.584089484E+01  0.970787032E+01  0.247883778E+01
   H -0.118915796E+02 -0.110008030E+01  0.258331035E+01
   H  0.118915796E+02 -0.110008030E+01  0.258331035E+01
  Xx -0.169939848E-15 -0.140989467E+01 -0.130716219E+04
    11
 # iter = 28750  time[fs]=28.75000
   N -0.205961633E+01 -0.296638178E+01  0.249860931E+01
   N  0.205961633E+01 -0.296638178E+01  0.249860931E+01
   C -0.126888172E+01  0.227165430E+01  0.250602249E+01
   C  0.126888172E+01  0.227165430E+01  0.250602249E+01
   C -0.285444132E+01  0.366980320E+00  0.249139100E+01
   C  0.285444132E+01  0.366980320E+00  0.249139100E+01
   H -0.589760903E+01  0.980150382E+01  0.247858126E+01
   H  0.589760903E+01  0.980150382E+01  0.247858126E+01
   H -0.120075114E+02 -0.111603970E+01  0.258430474E+01
   H  0.120075114E+02 -0.111603970E+01  0.258430474E+01
  Xx -0.171451360E-15 -0.141207550E+01 -0.131880396E+04
    11
 # iter = 29000  time[fs]=29.00000
   N -0.207317891E+01 -0.298437443E+01  0.249855169E+01
   N  0.207317891E+01 -0.298437443E+01  0.249855169E+01
   C -0.127339233E+01  0.227962733E+01  0.250604703E+01
   C  0.127339233E+01  0.227962733E+01  0.250604703E+01
   C -0.286788176E+01  0.371866032E+00  0.249135425E+01
   C  0.286788176E+01  0.371866032E+00  0.249135425E+01
   H -0.595445970E+01  0.989534293E+01  0.247832364E+01
   H  0.595445970E+01  0.989534293E+01  0.247832364E+01
   H -0.121236675E+02 -0.113206713E+01  0.258530119E+01
   H  0.121236675E+02 -0.113206713E+01  0.258530119E+01
  Xx -0.172962865E-15 -0.141425633E+01 -0.133044574E+04
    11
 # iter = 29250  time[fs]=29.25000
   N -0.208668727E+01 -0.300239706E+01  0.249849096E+01
   N  0.208668727E+01 -0.300239706E+01  0.249849096E+01
   C -0.127788471E+01  0.228756077E+01  0.250606481E+01
   C  0.127788471E+01  0.228756077E+01  0.250606481E+01
   C -0.288126358E+01  0.376815992E+00  0.249132862E+01
   C  0.288126358E+01  0.376815992E+00  0.249132862E+01
   H -0.601144473E+01  0.998938403E+01  0.247806518E+01
   H  0.601144473E+01  0.998938403E+01  0.247806518E+01
   H -0.122400445E+02 -0.114816229E+01  0.258629968E+01
   H  0.122400445E+02 -0.114816229E+01  0.258629968E+01
  Xx -0.174474357E-15 -0.141643715E+01 -0.134208751E+04
    11
 # iter = 29500  time[fs]=29.50000
   N -0.210013455E+01 -0.302042600E+01  0.249843672E+01
   N  0.210013455E+01 -0.302042600E+01  0.249843672E+01
   C -0.128239952E+01  0.229543193E+01  0.250608825E+01
   C  0.128239952E+01  0.229543193E+01  0.250608825E+01
   C -0.289461846E+01  0.381787148E+00  0.249129939E+01
   C  0.289461846E+01  0.381787148E+00  0.249129939E+01
   H -0.606856683E+01  0.100836275E+02  0.247780580E+01
   H  0.606856683E+01  0.100836275E+02  0.247780580E+01
   H -0.123566355E+02 -0.116432581E+01  0.258730012E+01
   H  0.123566355E+02 -0.116432581E+01  0.258730012E+01
  Xx -0.175985849E-15 -0.141861798E+01 -0.135372928E+04
    11
 # iter = 29750  time[fs]=29.75000
   N -0.211353206E+01 -0.303843737E+01  0.249838563E+01
   N  0.211353206E+01 -0.303843737E+01  0.249838563E+01
   C -0.128689606E+01  0.230325256E+01  0.250611567E+01
   C  0.128689606E+01  0.230325256E+01  0.250611567E+01
   C -0.290791257E+01  0.386841354E+00  0.249125940E+01
   C  0.290791257E+01  0.386841354E+00  0.249125940E+01
   H -0.612581969E+01  0.101780676E+02  0.247754526E+01
   H  0.612581969E+01  0.101780676E+02  0.247754526E+01
   H -0.124734390E+02 -0.118055599E+01  0.258830178E+01
   H  0.124734390E+02 -0.118055599E+01  0.258830178E+01
  Xx -0.177497341E-15 -0.142079881E+01 -0.136537106E+04
    11
 # iter = 30000  time[fs]=30.00000
   N -0.212691029E+01 -0.305642212E+01  0.249834286E+01
   N  0.212691029E+01 -0.305642212E+01  0.249834286E+01
   C -0.129142313E+01  0.231101156E+01  0.250615666E+01
   C  0.129142313E+01  0.231101156E+01  0.250615666E+01
   C -0.292115513E+01  0.391920315E+00  0.249120249E+01
   C  0.292115513E+01  0.391920315E+00  0.249120249E+01
   H -0.618320451E+01  0.102727029E+02  0.247728350E+01
   H  0.618320451E+01  0.102727029E+02  0.247728350E+01
   H -0.125904504E+02 -0.119685265E+01  0.258930455E+01
   H  0.125904504E+02 -0.119685265E+01  0.258930455E+01
  Xx -0.179008833E-15 -0.142297963E+01 -0.137701283E+04
    11
 # iter = 30250  time[fs]=30.25000
   N -0.214029518E+01 -0.307436931E+01  0.249829670E+01
   N  0.214029518E+01 -0.307436931E+01  0.249829670E+01
   C -0.129593587E+01  0.231871727E+01  0.250619469E+01
   C  0.129593587E+01  0.231871727E+01  0.250619469E+01
   C -0.293436436E+01  0.397069630E+00  0.249114550E+01
   C  0.293436436E+01  0.397069630E+00  0.249114550E+01
   H -0.624071650E+01  0.103675292E+02  0.247701984E+01
   H  0.624071650E+01  0.103675292E+02  0.247701984E+01
   H -0.127076662E+02 -0.121321374E+01  0.259030843E+01
   H  0.127076662E+02 -0.121321374E+01  0.259030843E+01
  Xx -0.180520325E-15 -0.142516046E+01 -0.138865461E+04
    11
 # iter = 30500  time[fs]=30.50000
   N -0.215369372E+01 -0.309227578E+01  0.249824500E+01
   N  0.215369372E+01 -0.309227578E+01  0.249824500E+01
   C -0.130041977E+01  0.232638012E+01  0.250622962E+01
   C  0.130041977E+01  0.232638012E+01  0.250622962E+01
   C -0.294752165E+01  0.402271893E+00  0.249109246E+01
   C  0.294752165E+01  0.402271893E+00  0.249109246E+01
   H -0.629835175E+01  0.104625424E+02  0.247675448E+01
   H  0.629835175E+01  0.104625424E+02  0.247675448E+01
   H -0.128250840E+02 -0.122963768E+01  0.259131342E+01
   H  0.128250840E+02 -0.122963768E+01  0.259131342E+01
  Xx -0.182031817E-15 -0.142734129E+01 -0.140029638E+04
    11
 # iter = 30750  time[fs]=30.75000
   N -0.216712420E+01 -0.311015866E+01  0.249820089E+01
   N  0.216712420E+01 -0.311015866E+01  0.249820089E+01
   C -0.130489502E+01  0.233399874E+01  0.250624775E+01
   C  0.130489502E+01  0.233399874E+01  0.250624775E+01
   C -0.296062112E+01  0.407523911E+00  0.249105189E+01
   C  0.296062112E+01  0.407523911E+00  0.249105189E+01
   H -0.635610922E+01  0.105577400E+02  0.247648760E+01
   H  0.635610922E+01  0.105577400E+02  0.247648760E+01
   H -0.129426989E+02 -0.124612362E+01  0.259231952E+01
   H  0.129426989E+02 -0.124612362E+01  0.259231952E+01
  Xx -0.183543309E-15 -0.142952211E+01 -0.141193815E+04
    11
 # iter = 31000  time[fs]=31.00000
   N -0.218060252E+01 -0.312803976E+01  0.249815818E+01
   N  0.218060252E+01 -0.312803976E+01  0.249815818E+01
   C -0.130933335E+01  0.234157112E+01  0.250626417E+01
   C  0.130933335E+01  0.234157112E+01  0.250626417E+01
   C -0.297369501E+01  0.412844777E+00  0.249102243E+01
   C  0.297369501E+01  0.412844777E+00  0.249102243E+01
   H -0.641398636E+01  0.106531189E+02  0.247621980E+01
   H  0.641398636E+01  0.106531189E+02  0.247621980E+01
   H -0.130605087E+02 -0.126267036E+01  0.259332684E+01
   H  0.130605087E+02 -0.126267036E+01  0.259332684E+01
  Xx -0.185054801E-15 -0.143170294E+01 -0.142357993E+04
    11
 # iter = 31250  time[fs]=31.25000
   N -0.219414520E+01 -0.314593758E+01  0.249811264E+01
   N  0.219414520E+01 -0.314593758E+01  0.249811264E+01
   C -0.131376439E+01  0.234909361E+01  0.250625654E+01
   C  0.131376439E+01  0.234909361E+01  0.250625654E+01
   C -0.298670595E+01  0.418219281E+00  0.249100480E+01
   C  0.298670595E+01  0.418219281E+00  0.249100480E+01
   H -0.647198122E+01  0.107486757E+02  0.247595081E+01
   H  0.647198122E+01  0.107486757E+02  0.247595081E+01
   H -0.131785103E+02 -0.127927736E+01  0.259433546E+01
   H  0.131785103E+02 -0.127927736E+01  0.259433546E+01
  Xx -0.186566293E-15 -0.143388377E+01 -0.143522170E+04
    11
 # iter = 31500  time[fs]=31.50000
   N -0.220773230E+01 -0.316387565E+01  0.249807007E+01
   N  0.220773230E+01 -0.316387565E+01  0.249807007E+01
   C -0.131815135E+01  0.235659045E+01  0.250626456E+01
   C  0.131815135E+01  0.235659045E+01  0.250626456E+01
   C -0.299967485E+01  0.423652319E+00  0.249097798E+01
   C  0.299967485E+01  0.423652319E+00  0.249097798E+01
   H -0.653009229E+01  0.108444065E+02  0.247568123E+01
   H  0.653009229E+01  0.108444065E+02  0.247568123E+01
   H -0.132967001E+02 -0.129594377E+01  0.259534570E+01
   H  0.132967001E+02 -0.129594377E+01  0.259534570E+01
  Xx -0.188077785E-15 -0.143606459E+01 -0.144686348E+04
    11
 # iter = 31750  time[fs]=31.75000
   N -0.222135696E+01 -0.318187430E+01  0.249802566E+01
   N  0.222135696E+01 -0.318187430E+01  0.249802566E+01
   C -0.132251698E+01  0.236404346E+01  0.250627138E+01
   C  0.132251698E+01  0.236404346E+01  0.250627138E+01
   C -0.301259914E+01  0.429125948E+00  0.249095068E+01
   C  0.301259914E+01  0.429125948E+00  0.249095068E+01
   H -0.658831929E+01  0.109403101E+02  0.247541086E+01
   H  0.658831929E+01  0.109403101E+02  0.247541086E+01
   H -0.134150729E+02 -0.131266951E+01  0.259635745E+01
   H  0.134150729E+02 -0.131266951E+01  0.259635745E+01
  Xx -0.189589277E-15 -0.143824542E+01 -0.145850525E+04
    11
 # iter = 32000  time[fs]=32.00000
   N -0.223501757E+01 -0.319994008E+01  0.249798524E+01
   N  0.223501757E+01 -0.319994008E+01  0.249798524E+01
   C -0.132680659E+01  0.237147925E+01  0.250629047E+01
   C  0.132680659E+01  0.237147925E+01  0.250629047E+01
   C -0.302548833E+01  0.434655732E+00  0.249090896E+01
   C  0.302548833E+01  0.434655732E+00  0.249090896E+01
   H -0.664665820E+01  0.110363834E+02  0.247513954E+01
   H  0.664665820E+01  0.110363834E+02  0.247513954E+01
   H -0.135336275E+02 -0.132945333E+01  0.259737045E+01
   H  0.135336275E+02 -0.132945333E+01  0.259737045E+01
  Xx -0.191100769E-15 -0.144042625E+01 -0.147014702E+04
    11
 # iter = 32250  time[fs]=32.25000
   N -0.224870130E+01 -0.321806794E+01  0.249794405E+01
   N  0.224870130E+01 -0.321806794E+01  0.249794405E+01
   C -0.133107848E+01  0.237889237E+01  0.250631165E+01
   C  0.133107848E+01  0.237889237E+01  0.250631165E+01
   C -0.303831602E+01  0.440219084E+00  0.249085871E+01
   C  0.303831602E+01  0.440219084E+00  0.249085871E+01
   H -0.670510924E+01  0.111326254E+02  0.247486712E+01
   H  0.670510924E+01  0.111326254E+02  0.247486712E+01
   H -0.136523599E+02 -0.134629486E+01  0.259838467E+01
   H  0.136523599E+02 -0.134629486E+01  0.259838467E+01
  Xx -0.192612261E-15 -0.144260707E+01 -0.148178880E+04
    11
 # iter = 32500  time[fs]=32.50000
   N -0.226237042E+01 -0.323625606E+01  0.249790202E+01
   N  0.226237042E+01 -0.323625606E+01  0.249790202E+01
   C -0.133528830E+01  0.238626574E+01  0.250632880E+01
   C  0.133528830E+01  0.238626574E+01  0.250632880E+01
   C -0.305112119E+01  0.445840493E+00  0.249081864E+01
   C  0.305112119E+01  0.445840493E+00  0.249081864E+01
   H -0.676367046E+01  0.112290330E+02  0.247459358E+01
   H  0.676367046E+01  0.112290330E+02  0.247459358E+01
   H -0.137712657E+02 -0.136319290E+01  0.259940031E+01
   H  0.137712657E+02 -0.136319290E+01  0.259940031E+01
  Xx -0.194123753E-15 -0.144478790E+01 -0.149343057E+04
    11
 # iter = 32750  time[fs]=32.75000
   N -0.227601349E+01 -0.325447361E+01  0.249787269E+01
   N  0.227601349E+01 -0.325447361E+01  0.249787269E+01
   C -0.133947384E+01  0.239362860E+01  0.250633224E+01
   C  0.133947384E+01  0.239362860E+01  0.250633224E+01
   C -0.306386010E+01  0.451506605E+00  0.249078185E+01
   C  0.306386010E+01  0.451506605E+00  0.249078185E+01
   H -0.682233836E+01  0.113256008E+02  0.247431893E+01
   H  0.682233836E+01  0.113256008E+02  0.247431893E+01
   H -0.138903435E+02 -0.138014590E+01  0.260041735E+01
   H  0.138903435E+02 -0.138014590E+01  0.260041735E+01
  Xx -0.195635245E-15 -0.144696873E+01 -0.150507235E+04
    11
 # iter = 33000  time[fs]=33.00000
   N -0.228961248E+01 -0.327269366E+01  0.249784410E+01
   N  0.228961248E+01 -0.327269366E+01  0.249784410E+01
   C -0.134362131E+01  0.240095371E+01  0.250633139E+01
   C  0.134362131E+01  0.240095371E+01  0.250633139E+01
   C -0.307655808E+01  0.457221520E+00  0.249075987E+01
   C  0.307655808E+01  0.457221520E+00  0.249075987E+01
   H -0.688111170E+01  0.114223276E+02  0.247404309E+01
   H  0.688111170E+01  0.114223276E+02  0.247404309E+01
   H -0.140095902E+02 -0.139715282E+01  0.260143588E+01
   H  0.140095902E+02 -0.139715282E+01  0.260143588E+01
  Xx -0.197146737E-15 -0.144914955E+01 -0.151671412E+04
    11
 # iter = 33250  time[fs]=33.25000
   N -0.230316076E+01 -0.329090627E+01  0.249781173E+01
   N  0.230316076E+01 -0.329090627E+01  0.249781173E+01
   C -0.134774340E+01  0.240825457E+01  0.250630934E+01
   C  0.134774340E+01  0.240825457E+01  0.250630934E+01
   C -0.308920914E+01  0.463003267E+00  0.249075680E+01
   C  0.308920914E+01  0.463003267E+00  0.249075680E+01
   H -0.693998764E+01  0.115192100E+02  0.247376604E+01
   H  0.693998764E+01  0.115192100E+02  0.247376604E+01
   H -0.141290028E+02 -0.141421219E+01  0.260245588E+01
   H  0.141290028E+02 -0.141421219E+01  0.260245588E+01
  Xx -0.198658229E-15 -0.145133038E+01 -0.152835589E+04
    11
 # iter = 33500  time[fs]=33.50000
   N -0.231664178E+01 -0.330908926E+01  0.249778498E+01
   N  0.231664178E+01 -0.330908926E+01  0.249778498E+01
   C -0.135184052E+01  0.241552640E+01  0.250628268E+01
   C  0.135184052E+01  0.241552640E+01  0.250628268E+01
   C -0.310181212E+01  0.468820727E+00  0.249074404E+01
   C  0.310181212E+01  0.468820727E+00  0.249074404E+01
   H -0.699896466E+01  0.116162453E+02  0.247348802E+01
   H  0.699896466E+01  0.116162453E+02  0.247348802E+01
   H -0.142485796E+02 -0.143132293E+01  0.260347715E+01
   H  0.142485796E+02 -0.143132293E+01  0.260347715E+01
  Xx -0.200169721E-15 -0.145351121E+01 -0.153999767E+04
    11
 # iter = 33750  time[fs]=33.75000
   N -0.233005793E+01 -0.332722848E+01  0.249776803E+01
   N  0.233005793E+01 -0.332722848E+01  0.249776803E+01
   C -0.135590908E+01  0.242277218E+01  0.250626969E+01
   C  0.135590908E+01  0.242277218E+01  0.250626969E+01
   C -0.311436822E+01  0.474716076E+00  0.249073856E+01
   C  0.311436822E+01  0.474716076E+00  0.249073856E+01
   H -0.705803974E+01  0.117134289E+02  0.247320946E+01
   H  0.705803974E+01  0.117134289E+02  0.247320946E+01
   H -0.143683173E+02 -0.144848352E+01  0.260449997E+01
   H  0.143683173E+02 -0.144848352E+01  0.260449997E+01
  Xx -0.201681213E-15 -0.145569203E+01 -0.155163944E+04
    11
 # iter = 34000  time[fs]=34.00000
   N -0.234342139E+01 -0.334534154E+01  0.249775326E+01
   N  0.234342139E+01 -0.334534154E+01  0.249775326E+01
   C -0.135998007E+01  0.242998823E+01  0.250624828E+01
   C  0.135998007E+01  0.242998823E+01  0.250624828E+01
   C -0.312687949E+01  0.480648009E+00  0.249072704E+01
   C  0.312687949E+01  0.480648009E+00  0.249072704E+01
   H -0.711721214E+01  0.118107588E+02  0.247293037E+01
   H  0.711721214E+01  0.118107588E+02  0.247293037E+01
   H -0.144882127E+02 -0.146569345E+01  0.260552395E+01
   H  0.144882127E+02 -0.146569345E+01  0.260552395E+01
  Xx -0.203192705E-15 -0.145787286E+01 -0.156328122E+04
    11
 # iter = 34250  time[fs]=34.25000
   N -0.235673773E+01 -0.336343647E+01  0.249773620E+01
   N  0.235673773E+01 -0.336343647E+01  0.249773620E+01
   C -0.136404216E+01  0.243716002E+01  0.250624332E+01
   C  0.136404216E+01  0.243716002E+01  0.250624332E+01
   C -0.313933322E+01  0.486664784E+00  0.249070621E+01
   C  0.313933322E+01  0.486664784E+00  0.249070621E+01
   H -0.717647946E+01  0.119082321E+02  0.247265118E+01
   H  0.717647946E+01  0.119082321E+02  0.247265118E+01
   H -0.146082633E+02 -0.148295160E+01  0.260654904E+01
   H  0.146082633E+02 -0.148295160E+01  0.260654904E+01
  Xx -0.204704197E-15 -0.146005369E+01 -0.157492299E+04
    11
 # iter = 34500  time[fs]=34.50000
   N -0.237001984E+01 -0.338152471E+01  0.249771817E+01
   N  0.237001984E+01 -0.338152471E+01  0.249771817E+01
   C -0.136813285E+01  0.244430799E+01  0.250623416E+01
   C  0.136813285E+01  0.244430799E+01  0.250623416E+01
   C -0.315174406E+01  0.492736766E+00  0.249069055E+01
   C  0.315174406E+01  0.492736766E+00  0.249069055E+01
   H -0.723584006E+01  0.120058474E+02  0.247237139E+01
   H  0.723584006E+01  0.120058474E+02  0.247237139E+01
   H -0.147284664E+02 -0.150025741E+01  0.260757524E+01
   H  0.147284664E+02 -0.150025741E+01  0.260757524E+01
  Xx -0.206215690E-15 -0.146223451E+01 -0.158656477E+04
    11
 # iter = 34750  time[fs]=34.75000
   N -0.238329046E+01 -0.339964141E+01  0.249770482E+01
   N  0.238329046E+01 -0.339964141E+01  0.249770482E+01
   C -0.137221692E+01  0.245140951E+01  0.250622141E+01
   C  0.137221692E+01  0.245140951E+01  0.250622141E+01
   C -0.316410858E+01  0.498876605E+00  0.249067677E+01
   C  0.316410858E+01  0.498876605E+00  0.249067677E+01
   H -0.729529393E+01  0.121036037E+02  0.247209083E+01
   H  0.729529393E+01  0.121036037E+02  0.247209083E+01
   H -0.148488198E+02 -0.151761064E+01  0.260860255E+01
   H  0.148488198E+02 -0.151761064E+01  0.260860255E+01
  Xx -0.207727182E-15 -0.146441534E+01 -0.159820654E+04
    11
 # iter = 35000  time[fs]=35.00000
   N -0.239657082E+01 -0.341780909E+01  0.249769105E+01
   N  0.239657082E+01 -0.341780909E+01  0.249769105E+01
   C -0.137631436E+01  0.245847751E+01  0.250620105E+01
   C  0.137631436E+01  0.245847751E+01  0.250620105E+01
   C -0.317643284E+01  0.505063653E+00  0.249067916E+01
   C  0.317643284E+01  0.505063653E+00  0.249067916E+01
   H -0.735484029E+01  0.122014978E+02  0.247180962E+01
   H  0.735484029E+01  0.122014978E+02  0.247180962E+01
   H -0.149693201E+02 -0.153501095E+01  0.260963097E+01
   H  0.149693201E+02 -0.153501095E+01  0.260963097E+01
  Xx -0.209238674E-15 -0.146659617E+01 -0.160984831E+04
    11
 # iter = 35250  time[fs]=35.25000
   N -0.240986958E+01 -0.343603171E+01  0.249768075E+01
   N  0.240986958E+01 -0.343603171E+01  0.249768075E+01
   C -0.138040120E+01  0.246551355E+01  0.250617770E+01
   C  0.138040120E+01  0.246551355E+01  0.250617770E+01
   C -0.318872162E+01  0.511324440E+00  0.249068283E+01
   C  0.318872162E+01  0.511324440E+00  0.249068283E+01
   H -0.741447773E+01  0.122995295E+02  0.247152796E+01
   H  0.741447773E+01  0.122995295E+02  0.247152796E+01
   H -0.150899664E+02 -0.155245755E+01  0.261066050E+01
   H  0.150899664E+02 -0.155245755E+01  0.261066050E+01
  Xx -0.210750152E-15 -0.146877699E+01 -0.162149009E+04
    11
 # iter = 35500  time[fs]=35.50000
   N -0.242321258E+01 -0.345432223E+01  0.249766674E+01
   N  0.242321258E+01 -0.345432223E+01  0.249766674E+01
   C -0.138448535E+01  0.247249883E+01  0.250613228E+01
   C  0.138448535E+01  0.247249883E+01  0.250613228E+01
   C -0.320098514E+01  0.517622583E+00  0.249070999E+01
   C  0.320098514E+01  0.517622583E+00  0.249070999E+01
   H -0.747420609E+01  0.123976980E+02  0.247124586E+01
   H  0.747420609E+01  0.123976980E+02  0.247124586E+01
   H -0.152107552E+02 -0.156995019E+01  0.261169114E+01
   H  0.152107552E+02 -0.156995019E+01  0.261169114E+01
  Xx -0.212261623E-15 -0.147095782E+01 -0.163313186E+04
    11
 # iter = 35750  time[fs]=35.75000
   N -0.243660643E+01 -0.347267605E+01  0.249765958E+01
   N  0.243660643E+01 -0.347267605E+01  0.249765958E+01
   C -0.138856047E+01  0.247944657E+01  0.250610797E+01
   C  0.138856047E+01  0.247944657E+01  0.250610797E+01
   C -0.321321033E+01  0.523974951E+00  0.249072752E+01
   C  0.321321033E+01  0.523974951E+00  0.249072752E+01
   H -0.753402381E+01  0.124960000E+02  0.247096346E+01
   H  0.753402381E+01  0.124960000E+02  0.247096346E+01
   H -0.153316855E+02 -0.158748813E+01  0.261272302E+01
   H  0.153316855E+02 -0.158748813E+01  0.261272302E+01
  Xx -0.213773094E-15 -0.147313865E+01 -0.164477364E+04
    11
 # iter = 36000  time[fs]=36.00000
   N -0.245006663E+01 -0.349108231E+01  0.249765943E+01
   N  0.245006663E+01 -0.349108231E+01  0.249765943E+01
   C -0.139262194E+01  0.248635413E+01  0.250606976E+01
   C  0.139262194E+01  0.248635413E+01  0.250606976E+01
   C -0.322541401E+01  0.530374232E+00  0.249074170E+01
   C  0.322541401E+01  0.530374232E+00  0.249074170E+01
   H -0.759392936E+01  0.125944330E+02  0.247068055E+01
   H  0.759392936E+01  0.125944330E+02  0.247068055E+01
   H -0.154527540E+02 -0.160507077E+01  0.261375604E+01
   H  0.154527540E+02 -0.160507077E+01  0.261375604E+01
  Xx -0.215284565E-15 -0.147531947E+01 -0.165641541E+04
    11
 # iter = 36250  time[fs]=36.25000
   N -0.246358013E+01 -0.350953116E+01  0.249765605E+01
   N  0.246358013E+01 -0.350953116E+01  0.249765605E+01
   C -0.139669644E+01  0.249319464E+01  0.250604390E+01
   C  0.139669644E+01  0.249319464E+01  0.250604390E+01
   C -0.323757206E+01  0.536810607E+00  0.249075928E+01
   C  0.323757206E+01  0.536810607E+00  0.249075928E+01
   H -0.765392248E+01  0.126929949E+02  0.247039753E+01
   H  0.765392248E+01  0.126929949E+02  0.247039753E+01
   H -0.155739585E+02 -0.162269788E+01  0.261479021E+01
   H  0.155739585E+02 -0.162269788E+01  0.261479021E+01
  Xx -0.216796036E-15 -0.147750030E+01 -0.166805718E+04
    11
 # iter = 36500  time[fs]=36.50000
   N -0.247713725E+01 -0.352799309E+01  0.249766210E+01
   N  0.247713725E+01 -0.352799309E+01  0.249766210E+01
   C -0.140075719E+01  0.249998644E+01  0.250602036E+01
   C  0.140075719E+01  0.249998644E+01  0.250602036E+01
   C -0.324970821E+01  0.543287222E+00  0.249076467E+01
   C  0.324970821E+01  0.543287222E+00  0.249076467E+01
   H -0.771400156E+01  0.127916854E+02  0.247011390E+01
   H  0.771400156E+01  0.127916854E+02  0.247011390E+01
   H -0.156952963E+02 -0.164036870E+01  0.261582548E+01
   H  0.156952963E+02 -0.164036870E+01  0.261582548E+01
  Xx -0.218307507E-15 -0.147968112E+01 -0.167969896E+04
    11
 # iter = 36750  time[fs]=36.75000
   N -0.249072668E+01 -0.354644847E+01  0.249767526E+01
   N  0.249072668E+01 -0.354644847E+01  0.249767526E+01
   C -0.140482867E+01  0.250673011E+01  0.250600189E+01
   C  0.140482867E+01  0.250673011E+01  0.250600189E+01
   C -0.326178411E+01  0.549791362E+00  0.249076537E+01
   C  0.326178411E+01  0.549791362E+00  0.249076537E+01
   H -0.777416552E+01  0.128905017E+02  0.246982953E+01
   H  0.777416552E+01  0.128905017E+02  0.246982953E+01
   H -0.158167669E+02 -0.165808277E+01  0.261686187E+01
   H  0.158167669E+02 -0.165808277E+01  0.261686187E+01
  Xx -0.219818978E-15 -0.148186195E+01 -0.169134073E+04
    11
 # iter = 37000  time[fs]=37.00000
   N -0.250432952E+01 -0.356489346E+01  0.249768505E+01
   N  0.250432952E+01 -0.356489346E+01  0.249768505E+01
   C -0.140888286E+01  0.251341230E+01  0.250597786E+01
   C  0.140888286E+01  0.251341230E+01  0.250597786E+01
   C -0.327383213E+01  0.556330228E+00  0.249078122E+01
   C  0.327383213E+01  0.556330228E+00  0.249078122E+01
   H -0.783441334E+01  0.129894423E+02  0.246954405E+01
   H  0.783441334E+01  0.129894423E+02  0.246954405E+01
   H -0.159383671E+02 -0.167583960E+01  0.261789936E+01
   H  0.159383671E+02 -0.167583960E+01  0.261789936E+01
  Xx -0.221330449E-15 -0.148404278E+01 -0.170298251E+04
    11
 # iter = 37250  time[fs]=37.25000
   N -0.251791407E+01 -0.358331801E+01  0.249770161E+01
   N  0.251791407E+01 -0.358331801E+01  0.249770161E+01
   C -0.141296338E+01  0.252003684E+01  0.250595248E+01
   C  0.141296338E+01  0.252003684E+01  0.250595248E+01
   C -0.328582465E+01  0.562878743E+00  0.249079007E+01
   C  0.328582465E+01  0.562878743E+00  0.249079007E+01
   H -0.789474408E+01  0.130885067E+02  0.246925747E+01
   H  0.789474408E+01  0.130885067E+02  0.246925747E+01
   H -0.160600955E+02 -0.169363892E+01  0.261893797E+01
   H  0.160600955E+02 -0.169363892E+01  0.261893797E+01
  Xx -0.222841920E-15 -0.148622360E+01 -0.171462428E+04
    11
 # iter = 37500  time[fs]=37.50000
   N -0.253146906E+01 -0.360172024E+01  0.249771775E+01
   N  0.253146906E+01 -0.360172024E+01  0.249771775E+01
   C -0.141702615E+01  0.252660713E+01  0.250592041E+01
   C  0.141702615E+01  0.252660713E+01  0.250592041E+01
   C -0.329778398E+01  0.569460061E+00  0.249081012E+01
   C  0.329778398E+01  0.569460061E+00  0.249081012E+01
   H -0.795515556E+01  0.131876916E+02  0.246896981E+01
   H  0.795515556E+01  0.131876916E+02  0.246896981E+01
   H -0.161819489E+02 -0.171147985E+01  0.261997769E+01
   H  0.161819489E+02 -0.171147985E+01  0.261997769E+01
  Xx -0.224353391E-15 -0.148840443E+01 -0.172626605E+04
    11
 # iter = 37750  time[fs]=37.75000
   N -0.254498599E+01 -0.362012445E+01  0.249773618E+01
   N  0.254498599E+01 -0.362012445E+01  0.249773618E+01
   C -0.142110590E+01  0.253313072E+01  0.250588185E+01
   C  0.142110590E+01  0.253313072E+01  0.250588185E+01
   C -0.330968237E+01  0.576058863E+00  0.249083972E+01
   C  0.330968237E+01  0.576058863E+00  0.249083972E+01
   H -0.801564698E+01  0.132869964E+02  0.246868120E+01
   H  0.801564698E+01  0.132869964E+02  0.246868120E+01
   H -0.163039266E+02 -0.172936185E+01  0.262101851E+01
   H  0.163039266E+02 -0.172936185E+01  0.262101851E+01
  Xx -0.225864862E-15 -0.149058526E+01 -0.173790783E+04
    11
 # iter = 38000  time[fs]=38.00000
   N -0.255844467E+01 -0.363855524E+01  0.249775751E+01
   N  0.255844467E+01 -0.363855524E+01  0.249775751E+01
   C -0.142518933E+01  0.253958477E+01  0.250584580E+01
   C  0.142518933E+01  0.253958477E+01  0.250584580E+01
   C -0.332155153E+01  0.582671122E+00  0.249086107E+01
   C  0.332155153E+01  0.582671122E+00  0.249086107E+01
   H -0.807621810E+01  0.133864190E+02  0.246839207E+01
   H  0.807621810E+01  0.133864190E+02  0.246839207E+01
   H -0.164260286E+02 -0.174728422E+01  0.262206045E+01
   H  0.164260286E+02 -0.174728422E+01  0.262206045E+01
  Xx -0.227376333E-15 -0.149276608E+01 -0.174954960E+04
    11
 # iter = 38250  time[fs]=38.25000
   N -0.257184301E+01 -0.365702986E+01  0.249777095E+01
   N  0.257184301E+01 -0.365702986E+01  0.249777095E+01
   C -0.142927753E+01  0.254598472E+01  0.250581789E+01
   C  0.142927753E+01  0.254598472E+01  0.250581789E+01
   C -0.333336716E+01  0.589311310E+00  0.249088829E+01
   C  0.333336716E+01  0.589311310E+00  0.249088829E+01
   H -0.813686573E+01  0.134859571E+02  0.246810263E+01
   H  0.813686573E+01  0.134859571E+02  0.246810263E+01
   H -0.165482531E+02 -0.176524614E+01  0.262310350E+01
   H  0.165482531E+02 -0.176524614E+01  0.262310350E+01
  Xx -0.228887805E-15 -0.149494691E+01 -0.176119138E+04
    11
 # iter = 38500  time[fs]=38.50000
   N -0.258518638E+01 -0.367557222E+01  0.249779444E+01
   N  0.258518638E+01 -0.367557222E+01  0.249779444E+01
   C -0.143335742E+01  0.255233879E+01  0.250577916E+01
   C  0.143335742E+01  0.255233879E+01  0.250577916E+01
   C -0.334514351E+01  0.595967319E+00  0.249090717E+01
   C  0.334514351E+01  0.595967319E+00  0.249090717E+01
   H -0.819758885E+01  0.135856083E+02  0.246781279E+01
   H  0.819758885E+01  0.135856083E+02  0.246781279E+01
   H -0.166705935E+02 -0.178324695E+01  0.262414766E+01
   H  0.166705935E+02 -0.178324695E+01  0.262414766E+01
  Xx -0.230399276E-15 -0.149712774E+01 -0.177283315E+04
    11
 # iter = 38750  time[fs]=38.75000
   N -0.259848062E+01 -0.369419961E+01  0.249782023E+01
   N  0.259848062E+01 -0.369419961E+01  0.249782023E+01
   C -0.143744069E+01  0.255863431E+01  0.250576195E+01
   C  0.143744069E+01  0.255863431E+01  0.250576195E+01
   C -0.335687040E+01  0.602643365E+00  0.249091623E+01
   C  0.335687040E+01  0.602643365E+00  0.249091623E+01
   H -0.825838748E+01  0.136853706E+02  0.246752274E+01
   H  0.825838748E+01  0.136853706E+02  0.246752274E+01
   H -0.167930493E+02 -0.180128600E+01  0.262519292E+01
   H  0.167930493E+02 -0.180128600E+01  0.262519292E+01
  Xx -0.231910747E-15 -0.149930856E+01 -0.178447492E+04
    11
 # iter = 39000  time[fs]=39.00000
   N -0.261172662E+01 -0.371290686E+01  0.249784776E+01
   N  0.261172662E+01 -0.371290686E+01  0.249784776E+01
   C -0.144151380E+01  0.256487784E+01  0.250574461E+01
   C  0.144151380E+01  0.256487784E+01  0.250574461E+01
   C -0.336857029E+01  0.609329515E+00  0.249092643E+01
   C  0.336857029E+01  0.609329515E+00  0.249092643E+01
   H -0.831926079E+01  0.137852434E+02  0.246723228E+01
   H  0.831926079E+01  0.137852434E+02  0.246723228E+01
   H -0.169156207E+02 -0.181936272E+01  0.262623930E+01
   H  0.169156207E+02 -0.181936272E+01  0.262623930E+01
  Xx -0.233422218E-15 -0.150148939E+01 -0.179611670E+04
    11
 # iter = 39250  time[fs]=39.25000
   N -0.262495094E+01 -0.373167623E+01  0.249788065E+01
   N  0.262495094E+01 -0.373167623E+01  0.249788065E+01
   C -0.144557546E+01  0.257107948E+01  0.250572272E+01
   C  0.144557546E+01  0.257107948E+01  0.250572272E+01
   C -0.338021949E+01  0.616046363E+00  0.249092941E+01
   C  0.338021949E+01  0.616046363E+00  0.249092941E+01
   H -0.838020552E+01  0.138852232E+02  0.246694136E+01
   H  0.838020552E+01  0.138852232E+02  0.246694136E+01
   H -0.170383074E+02 -0.183747630E+01  0.262728679E+01
   H  0.170383074E+02 -0.183747630E+01  0.262728679E+01
  Xx -0.234933689E-15 -0.150367022E+01 -0.180775847E+04
    11
 # iter = 39500  time[fs]=39.50000
   N -0.263817355E+01 -0.375050037E+01  0.249791645E+01
   N  0.263817355E+01 -0.375050037E+01  0.249791645E+01
   C -0.144964396E+01  0.257723834E+01  0.250570939E+01
   C  0.144964396E+01  0.257723834E+01  0.250570939E+01
   C -0.339182959E+01  0.622769329E+00  0.249093393E+01
   C  0.339182959E+01  0.622769329E+00  0.249093393E+01
   H -0.844122130E+01  0.139853097E+02  0.246665027E+01
   H  0.844122130E+01  0.139853097E+02  0.246665027E+01
   H -0.171611089E+02 -0.185562637E+01  0.262833539E+01
   H  0.171611089E+02 -0.185562637E+01  0.262833539E+01
  Xx -0.236445160E-15 -0.150585104E+01 -0.181940025E+04
    11
 # iter = 39750  time[fs]=39.75000
   N -0.265141341E+01 -0.376935627E+01  0.249795680E+01
   N  0.265141341E+01 -0.376935627E+01  0.249795680E+01
   C -0.145371984E+01  0.258332754E+01  0.250568594E+01
   C  0.145371984E+01  0.258332754E+01  0.250568594E+01
   C -0.340341334E+01  0.629532608E+00  0.249094862E+01
   C  0.340341334E+01  0.629532608E+00  0.249094862E+01
   H -0.850230813E+01  0.140855024E+02  0.246635887E+01
   H  0.850230813E+01  0.140855024E+02  0.246635887E+01
   H -0.172840185E+02 -0.187381252E+01  0.262938510E+01
   H  0.172840185E+02 -0.187381252E+01  0.262938510E+01
  Xx -0.237956631E-15 -0.150803187E+01 -0.183104202E+04
    11
 # iter = 40000  time[fs]=40.00000
   N -0.266468079E+01 -0.378820234E+01  0.249799932E+01
   N  0.266468079E+01 -0.378820234E+01  0.249799932E+01
   C -0.145782106E+01  0.258938196E+01  0.250566246E+01
   C  0.145782106E+01  0.258938196E+01  0.250566246E+01
   C -0.341494187E+01  0.636311936E+00  0.249096518E+01
   C  0.341494187E+01  0.636311936E+00  0.249096518E+01
   H -0.856346499E+01  0.141857982E+02  0.246606704E+01
   H  0.856346499E+01  0.141857982E+02  0.246606704E+01
   H -0.174070347E+02 -0.189203415E+01  0.263043592E+01
   H  0.174070347E+02 -0.189203415E+01  0.263043592E+01
  Xx -0.239468102E-15 -0.151021270E+01 -0.184268379E+04
    11
 # iter = 40250  time[fs]=40.25000
   N -0.267799595E+01 -0.380702855E+01  0.249803543E+01
   N  0.267799595E+01 -0.380702855E+01  0.249803543E+01
   C -0.146192266E+01  0.259536361E+01  0.250563080E+01
   C  0.146192266E+01  0.259536361E+01  0.250563080E+01
   C -0.342643731E+01  0.643133446E+00  0.249098932E+01
   C  0.342643731E+01  0.643133446E+00  0.249098932E+01
   H -0.862469043E+01  0.142861962E+02  0.246577471E+01
   H  0.862469043E+01  0.142861962E+02  0.246577471E+01
   H -0.175301575E+02 -0.191029080E+01  0.263148785E+01
   H  0.175301575E+02 -0.191029080E+01  0.263148785E+01
  Xx -0.240979573E-15 -0.151239352E+01 -0.185432557E+04
    11
 # iter = 40500  time[fs]=40.50000
   N -0.269136462E+01 -0.382582544E+01  0.249807592E+01
   N  0.269136462E+01 -0.382582544E+01  0.249807592E+01
   C -0.146606026E+01  0.260130167E+01  0.250559432E+01
   C  0.146606026E+01  0.260130167E+01  0.250559432E+01
   C -0.343790001E+01  0.649974897E+00  0.249101753E+01
   C  0.343790001E+01  0.649974897E+00  0.249101753E+01
   H -0.868598250E+01  0.143866962E+02  0.246548235E+01
   H  0.868598250E+01  0.143866962E+02  0.246548235E+01
   H -0.176533869E+02 -0.192858204E+01  0.263254088E+01
   H  0.176533869E+02 -0.192858204E+01  0.263254088E+01
  Xx -0.242491044E-15 -0.151457435E+01 -0.186596734E+04
    11
 # iter = 40750  time[fs]=40.75000
   N -0.270477375E+01 -0.384458159E+01  0.249811846E+01
   N  0.270477375E+01 -0.384458159E+01  0.249811846E+01
   C -0.147019393E+01  0.260718959E+01  0.250556381E+01
   C  0.147019393E+01  0.260718959E+01  0.250556381E+01
   C -0.344933075E+01  0.656852756E+00  0.249104354E+01
   C  0.344933075E+01  0.656852756E+00  0.249104354E+01
   H -0.874734119E+01  0.144872952E+02  0.246518998E+01
   H  0.874734119E+01  0.144872952E+02  0.246518998E+01
   H -0.177767228E+02 -0.194690722E+01  0.263359503E+01
   H  0.177767228E+02 -0.194690722E+01  0.263359503E+01
  Xx -0.244002515E-15 -0.151675518E+01 -0.187760912E+04
    11
 # iter = 41000  time[fs]=41.00000
   N -0.271822700E+01 -0.386331544E+01  0.249815733E+01
   N  0.271822700E+01 -0.386331544E+01  0.249815733E+01
   C -0.147434162E+01  0.261301899E+01  0.250554034E+01
   C  0.147434162E+01  0.261301899E+01  0.250554034E+01
   C -0.346070856E+01  0.663761384E+00  0.249106479E+01
   C  0.346070856E+01  0.663761384E+00  0.249106479E+01
   H -0.880876649E+01  0.145879919E+02  0.246489762E+01
   H  0.880876649E+01  0.145879919E+02  0.246489762E+01
   H -0.179001645E+02 -0.196526581E+01  0.263465029E+01
   H  0.179001645E+02 -0.196526581E+01  0.263465029E+01
  Xx -0.245513986E-15 -0.151893600E+01 -0.188925089E+04
    11
 # iter = 41250  time[fs]=41.25000
   N -0.273171114E+01 -0.388205257E+01  0.249819540E+01
   N  0.273171114E+01 -0.388205257E+01  0.249819540E+01
   C -0.147850766E+01  0.261880521E+01  0.250551381E+01
   C  0.147850766E+01  0.261880521E+01  0.250551381E+01
   C -0.347206808E+01  0.670697456E+00  0.249108487E+01
   C  0.347206808E+01  0.670697456E+00  0.249108487E+01
   H -0.887025827E+01  0.146887861E+02  0.246460525E+01
   H  0.887025827E+01  0.146887861E+02  0.246460525E+01
   H -0.180237053E+02 -0.198365722E+01  0.263570666E+01
   H  0.180237053E+02 -0.198365722E+01  0.263570666E+01
  Xx -0.247025457E-15 -0.152111683E+01 -0.190089266E+04
    11
 # iter = 41500  time[fs]=41.50000
   N -0.274521757E+01 -0.390082548E+01  0.249823782E+01
   N  0.274521757E+01 -0.390082548E+01  0.249823782E+01
   C -0.148268756E+01  0.262453330E+01  0.250550136E+01
   C  0.148268756E+01  0.262453330E+01  0.250550136E+01
   C -0.348338331E+01  0.677683352E+00  0.249108946E+01
   C  0.348338331E+01  0.677683352E+00  0.249108946E+01
   H -0.893181348E+01  0.147896749E+02  0.246431289E+01
   H  0.893181348E+01  0.147896749E+02  0.246431289E+01
   H -0.181473437E+02 -0.200208091E+01  0.263676414E+01
   H  0.181473437E+02 -0.200208091E+01  0.263676414E+01
  Xx -0.248536928E-15 -0.152329766E+01 -0.191253444E+04
    11
 # iter = 41750  time[fs]=41.75000
   N -0.275872727E+01 -0.391965714E+01  0.249828752E+01
   N  0.275872727E+01 -0.391965714E+01  0.249828752E+01
   C -0.148687856E+01  0.263021218E+01  0.250549084E+01
   C  0.148687856E+01  0.263021218E+01  0.250549084E+01
   C -0.349465290E+01  0.684706389E+00  0.249109844E+01
   C  0.349465290E+01  0.684706389E+00  0.249109844E+01
   H -0.899343086E+01  0.148906568E+02  0.246402050E+01
   H  0.899343086E+01  0.148906568E+02  0.246402050E+01
   H -0.182710799E+02 -0.202053631E+01  0.263782273E+01
   H  0.182710799E+02 -0.202053631E+01  0.263782273E+01
  Xx -0.250048399E-15 -0.152547848E+01 -0.192417621E+04
    11
 # iter = 42000  time[fs]=42.00000
   N -0.277222496E+01 -0.393856155E+01  0.249833562E+01
   N  0.277222496E+01 -0.393856155E+01  0.249833562E+01
   C -0.149110438E+01  0.263583249E+01  0.250548201E+01
   C  0.149110438E+01  0.263583249E+01  0.250548201E+01
   C -0.350588783E+01  0.691775230E+00  0.249110135E+01
   C  0.350588783E+01  0.691775230E+00  0.249110135E+01
   H -0.905511041E+01  0.149917321E+02  0.246372782E+01
   H  0.905511041E+01  0.149917321E+02  0.246372782E+01
   H -0.183949138E+02 -0.203902281E+01  0.263888243E+01
   H  0.183949138E+02 -0.203902281E+01  0.263888243E+01
  Xx -0.251559871E-15 -0.152765931E+01 -0.193581799E+04
    11
 # iter = 42250  time[fs]=42.25000
   N -0.278569409E+01 -0.395755326E+01  0.249838743E+01
   N  0.278569409E+01 -0.395755326E+01  0.249838743E+01
   C -0.149535293E+01  0.264139986E+01  0.250546740E+01
   C  0.149535293E+01  0.264139986E+01  0.250546740E+01
   C -0.351707698E+01  0.698889721E+00  0.249111097E+01
   C  0.351707698E+01  0.698889721E+00  0.249111097E+01
   H -0.911685213E+01  0.150928982E+02  0.246343457E+01
   H  0.911685213E+01  0.150928982E+02  0.246343457E+01
   H -0.185188454E+02 -0.205754041E+01  0.263994325E+01
   H  0.185188454E+02 -0.205754041E+01  0.263994325E+01
  Xx -0.253071342E-15 -0.152984014E+01 -0.194745976E+04
    11
 # iter = 42500  time[fs]=42.50000
   N -0.279912128E+01 -0.397662501E+01  0.249844560E+01
   N  0.279912128E+01 -0.397662501E+01  0.249844560E+01
   C -0.149961896E+01  0.264691174E+01  0.250545198E+01
   C  0.149961896E+01  0.264691174E+01  0.250545198E+01
   C -0.352821842E+01  0.706055904E+00  0.249112292E+01
   C  0.352821842E+01  0.706055904E+00  0.249112292E+01
   H -0.917865488E+01  0.151941531E+02  0.246314074E+01
   H  0.917865488E+01  0.151941531E+02  0.246314074E+01
   H -0.186428747E+02 -0.207608883E+01  0.264100517E+01
   H  0.186428747E+02 -0.207608883E+01  0.264100517E+01
  Xx -0.254582813E-15 -0.153202096E+01 -0.195910154E+04
    11
 # iter = 42750  time[fs]=42.75000
   N -0.281249294E+01 -0.399573916E+01  0.249850727E+01
   N  0.281249294E+01 -0.399573916E+01  0.249850727E+01
   C -0.150390715E+01  0.265239065E+01  0.250542554E+01
   C  0.150390715E+01  0.265239065E+01  0.250542554E+01
   C -0.353930979E+01  0.713248954E+00  0.249114775E+01
   C  0.353930979E+01  0.713248954E+00  0.249114775E+01
   H -0.924051553E+01  0.152954969E+02  0.246284631E+01
   H  0.924051553E+01  0.152954969E+02  0.246284631E+01
   H -0.187669999E+02 -0.209466729E+01  0.264206820E+01
   H  0.187669999E+02 -0.209466729E+01  0.264206820E+01
  Xx -0.256094284E-15 -0.153420179E+01 -0.197074331E+04
    11
 # iter = 43000  time[fs]=43.00000
   N -0.282580849E+01 -0.401487858E+01  0.249856799E+01
   N  0.282580849E+01 -0.401487858E+01  0.249856799E+01
   C -0.150821179E+01  0.265779578E+01  0.250539179E+01
   C  0.150821179E+01  0.265779578E+01  0.250539179E+01
   C -0.355036482E+01  0.720497781E+00  0.249117544E+01
   C  0.355036482E+01  0.720497781E+00  0.249117544E+01
   H -0.930243432E+01  0.153969294E+02  0.246255124E+01
   H  0.930243432E+01  0.153969294E+02  0.246255124E+01
   H -0.188912145E+02 -0.211327573E+01  0.264313234E+01
   H  0.188912145E+02 -0.211327573E+01  0.264313234E+01
  Xx -0.257605755E-15 -0.153638262E+01 -0.198238508E+04
    11
 # iter = 43250  time[fs]=43.25000
   N -0.283907119E+01 -0.403402455E+01  0.249863360E+01
   N  0.283907119E+01 -0.403402455E+01  0.249863360E+01
   C -0.151253460E+01  0.266318277E+01  0.250535207E+01
   C  0.151253460E+01  0.266318277E+01  0.250535207E+01
   C -0.356135954E+01  0.727769198E+00  0.249121332E+01
   C  0.356135954E+01  0.727769198E+00  0.249121332E+01
   H -0.936441090E+01  0.154984494E+02  0.246225588E+01
   H  0.936441090E+01  0.154984494E+02  0.246225588E+01
   H -0.190155179E+02 -0.213191414E+01  0.264419759E+01
   H  0.190155179E+02 -0.213191414E+01  0.264419759E+01
  Xx -0.259117226E-15 -0.153856344E+01 -0.199402686E+04
    11
 # iter = 43500  time[fs]=43.50000
   N -0.285227957E+01 -0.405314670E+01  0.249870256E+01
   N  0.285227957E+01 -0.405314670E+01  0.249870256E+01
   C -0.151686203E+01  0.266851527E+01  0.250531260E+01
   C  0.151686203E+01  0.266851527E+01  0.250531260E+01
   C -0.357231878E+01  0.735086700E+00  0.249125375E+01
   C  0.357231878E+01  0.735086700E+00  0.249125375E+01
   H -0.942644521E+01  0.156000538E+02  0.246196030E+01
   H  0.942644521E+01  0.156000538E+02  0.246196030E+01
   H -0.191399101E+02 -0.215058253E+01  0.264526395E+01
   H  0.191399101E+02 -0.215058253E+01  0.264526395E+01
  Xx -0.260628697E-15 -0.154074427E+01 -0.200566863E+04
    11
 # iter = 43750  time[fs]=43.75000
   N -0.286546321E+01 -0.407224121E+01  0.249877408E+01
   N  0.286546321E+01 -0.407224121E+01  0.249877408E+01
   C -0.152122152E+01  0.267380694E+01  0.250526766E+01
   C  0.152122152E+01  0.267380694E+01  0.250526766E+01
   C -0.358322620E+01  0.742430808E+00  0.249129357E+01
   C  0.358322620E+01  0.742430808E+00  0.249129357E+01
   H -0.948853725E+01  0.157017425E+02  0.246166473E+01
   H  0.948853725E+01  0.157017425E+02  0.246166473E+01
   H -0.192643912E+02 -0.216928049E+01  0.264633143E+01
   H  0.192643912E+02 -0.216928049E+01  0.264633143E+01
  Xx -0.262140168E-15 -0.154292510E+01 -0.201731041E+04
    11
 # iter = 44000  time[fs]=44.00000
   N -0.287863837E+01 -0.409129902E+01  0.249884559E+01
   N  0.287863837E+01 -0.409129902E+01  0.249884559E+01
   C -0.152558049E+01  0.267905199E+01  0.250523086E+01
   C  0.152558049E+01  0.267905199E+01  0.250523086E+01
   C -0.359409116E+01  0.749819233E+00  0.249133320E+01
   C  0.359409116E+01  0.749819233E+00  0.249133320E+01
   H -0.955068702E+01  0.158035157E+02  0.246136915E+01
   H  0.955068702E+01  0.158035157E+02  0.246136915E+01
   H -0.193889610E+02 -0.218800734E+01  0.264740001E+01
   H  0.193889610E+02 -0.218800734E+01  0.264740001E+01
  Xx -0.263651639E-15 -0.154510592E+01 -0.202895218E+04
    11
 # iter = 44250  time[fs]=44.25000
   N -0.289181299E+01 -0.411033439E+01  0.249891371E+01
   N  0.289181299E+01 -0.411033439E+01  0.249891371E+01
   C -0.152997282E+01  0.268426443E+01  0.250519221E+01
   C  0.152997282E+01  0.268426443E+01  0.250519221E+01
   C -0.360491484E+01  0.757226876E+00  0.249136395E+01
   C  0.360491484E+01  0.757226876E+00  0.249136395E+01
   H -0.961289348E+01  0.159053725E+02  0.246107324E+01
   H  0.961289348E+01  0.159053725E+02  0.246107324E+01
   H -0.195136197E+02 -0.220676301E+01  0.264846946E+01
   H  0.195136197E+02 -0.220676301E+01  0.264846946E+01
  Xx -0.265163110E-15 -0.154728675E+01 -0.204059395E+04
    11
 # iter = 44500  time[fs]=44.50000
   N -0.290499898E+01 -0.412937179E+01  0.249898906E+01
   N  0.290499898E+01 -0.412937179E+01  0.249898906E+01
   C -0.153435312E+01  0.268942528E+01  0.250516662E+01
   C  0.153435312E+01  0.268942528E+01  0.250516662E+01
   C -0.361568996E+01  0.764691658E+00  0.249139240E+01
   C  0.361568996E+01  0.764691658E+00  0.249139240E+01
   H -0.967515346E+01  0.160073097E+02  0.246077707E+01
   H  0.967515346E+01  0.160073097E+02  0.246077707E+01
   H -0.196383669E+02 -0.222554677E+01  0.264953984E+01
   H  0.196383669E+02 -0.222554677E+01  0.264953984E+01
  Xx -0.266674581E-15 -0.154946758E+01 -0.205223573E+04
    11
 # iter = 44750  time[fs]=44.75000
   N -0.291821676E+01 -0.414843091E+01  0.249906494E+01
   N  0.291821676E+01 -0.414843091E+01  0.249906494E+01
   C -0.153875473E+01  0.269455815E+01  0.250513843E+01
   C  0.153875473E+01  0.269455815E+01  0.250513843E+01
   C -0.362643599E+01  0.772153443E+00  0.249141785E+01
   C  0.362643599E+01  0.772153443E+00  0.249141785E+01
   H -0.973746672E+01  0.161093269E+02  0.246048037E+01
   H  0.973746672E+01  0.161093269E+02  0.246048037E+01
   H -0.197631965E+02 -0.224435827E+01  0.265061103E+01
   H  0.197631965E+02 -0.224435827E+01  0.265061103E+01
  Xx -0.268186052E-15 -0.155164840E+01 -0.206387750E+04
    11
 # iter = 45000  time[fs]=45.00000
   N -0.293147668E+01 -0.416754678E+01  0.249913538E+01
   N  0.293147668E+01 -0.416754678E+01  0.249913538E+01
   C -0.154313755E+01  0.269965363E+01  0.250511156E+01
   C  0.154313755E+01  0.269965363E+01  0.250511156E+01
   C -0.363714783E+01  0.779666250E+00  0.249143894E+01
   C  0.363714783E+01  0.779666250E+00  0.249143894E+01
   H -0.979983328E+01  0.162114240E+02  0.246018307E+01
   H  0.979983328E+01  0.162114240E+02  0.246018307E+01
   H -0.198881061E+02 -0.226319685E+01  0.265168300E+01
   H  0.198881061E+02 -0.226319685E+01  0.265168300E+01
  Xx -0.269697523E-15 -0.155382923E+01 -0.207551928E+04
    11
 # iter = 45250  time[fs]=45.25000
   N -0.294477301E+01 -0.418674273E+01  0.249920590E+01
   N  0.294477301E+01 -0.418674273E+01  0.249920590E+01
   C -0.154752280E+01  0.270471709E+01  0.250508107E+01
   C  0.154752280E+01  0.270471709E+01  0.250508107E+01
   C -0.364782725E+01  0.787188352E+00  0.249146351E+01
   C  0.364782725E+01  0.787188352E+00  0.249146351E+01
   H -0.986225313E+01  0.163136010E+02  0.245988527E+01
   H  0.986225313E+01  0.163136010E+02  0.245988527E+01
   H -0.200130955E+02 -0.228206209E+01  0.265275572E+01
   H  0.200130955E+02 -0.228206209E+01  0.265275572E+01
  Xx -0.271208994E-15 -0.155601005E+01 -0.208716105E+04
    11
 # iter = 45500  time[fs]=45.50000
   N -0.295811022E+01 -0.420601722E+01  0.249927780E+01
   N  0.295811022E+01 -0.420601722E+01  0.249927780E+01
   C -0.155190052E+01  0.270975088E+01  0.250505478E+01
   C  0.155190052E+01  0.270975088E+01  0.250505478E+01
   C -0.365847149E+01  0.794744317E+00  0.249149218E+01
   C  0.365847149E+01  0.794744317E+00  0.249149218E+01
   H -0.992472627E+01  0.164158579E+02  0.245958705E+01
   H  0.992472627E+01  0.164158579E+02  0.245958705E+01
   H -0.201381649E+02 -0.230095396E+01  0.265382924E+01
   H  0.201381649E+02 -0.230095396E+01  0.265382924E+01
  Xx -0.272720465E-15 -0.155819088E+01 -0.209880282E+04
    11
 # iter = 45750  time[fs]=45.75000
   N -0.297148780E+01 -0.422537552E+01  0.249934428E+01
   N  0.297148780E+01 -0.422537552E+01  0.249934428E+01
   C -0.155627357E+01  0.271474018E+01  0.250501559E+01
   C  0.155627357E+01  0.271474018E+01  0.250501559E+01
   C -0.366909861E+01  0.802312797E+00  0.249152615E+01
   C  0.366909861E+01  0.802312797E+00  0.249152615E+01
   H -0.998725238E+01  0.165181944E+02  0.245928831E+01
   H  0.998725238E+01  0.165181944E+02  0.245928831E+01
   H -0.202633143E+02 -0.231987223E+01  0.265490343E+01
   H  0.202633143E+02 -0.231987223E+01  0.265490343E+01
  Xx -0.274231937E-15 -0.156037171E+01 -0.211044460E+04
    11
 # iter = 46000  time[fs]=46.00000
   N -0.298489496E+01 -0.424480084E+01  0.249941367E+01
   N  0.298489496E+01 -0.424480084E+01  0.249941367E+01
   C -0.156065782E+01  0.271969603E+01  0.250496887E+01
   C  0.156065782E+01  0.271969603E+01  0.250496887E+01
   C -0.367968778E+01  0.809914067E+00  0.249156794E+01
   C  0.367968778E+01  0.809914067E+00  0.249156794E+01
   H -0.100498282E+02  0.166206041E+02  0.245898940E+01
   H  0.100498282E+02  0.166206041E+02  0.245898940E+01
   H -0.203885436E+02 -0.233881610E+01  0.265597872E+01
   H  0.203885436E+02 -0.233881610E+01  0.265597872E+01
  Xx -0.275743408E-15 -0.156255253E+01 -0.212208637E+04
    11
 # iter = 46250  time[fs]=46.25000
   N -0.299831753E+01 -0.426425166E+01  0.249948313E+01
   N  0.299831753E+01 -0.426425166E+01  0.249948313E+01
   C -0.156502624E+01  0.272462563E+01  0.250491937E+01
   C  0.156502624E+01  0.272462563E+01  0.250491937E+01
   C -0.369025527E+01  0.817539096E+00  0.249161470E+01
   C  0.369025527E+01  0.817539096E+00  0.249161470E+01
   H -0.101124529E+02  0.167230848E+02  0.245869045E+01
   H  0.101124529E+02  0.167230848E+02  0.245869045E+01
   H -0.205138528E+02 -0.235778551E+01  0.265705512E+01
   H  0.205138528E+02 -0.235778551E+01  0.265705512E+01
  Xx -0.277254879E-15 -0.156473336E+01 -0.213372815E+04
    11
 # iter = 46500  time[fs]=46.50000
   N -0.301174277E+01 -0.428368856E+01  0.249955419E+01
   N  0.301174277E+01 -0.428368856E+01  0.249955419E+01
   C -0.156943176E+01  0.272949222E+01  0.250486418E+01
   C  0.156943176E+01  0.272949222E+01  0.250486418E+01
   C -0.370079133E+01  0.825179052E+00  0.249167141E+01
   C  0.370079133E+01  0.825179052E+00  0.249167141E+01
   H -0.101751264E+02  0.168256365E+02  0.245839150E+01
   H  0.101751264E+02  0.168256365E+02  0.245839150E+01
   H -0.206392420E+02 -0.237678032E+01  0.265813264E+01
   H  0.206392420E+02 -0.237678032E+01  0.265813264E+01
  Xx -0.278766350E-15 -0.156691419E+01 -0.214536992E+04
    11
 # iter = 46750  time[fs]=46.75000
   N -0.302514965E+01 -0.430308687E+01  0.249962502E+01
   N  0.302514965E+01 -0.430308687E+01  0.249962502E+01
   C -0.157382960E+01  0.273434317E+01  0.250480418E+01
   C  0.157382960E+01  0.273434317E+01  0.250480418E+01
   C -0.371129725E+01  0.832843434E+00  0.249172875E+01
   C  0.371129725E+01  0.832843434E+00  0.249172875E+01
   H -0.102378487E+02  0.169282594E+02  0.245809255E+01
   H  0.102378487E+02  0.169282594E+02  0.245809255E+01
   H -0.207647110E+02 -0.239579971E+01  0.265921126E+01
   H  0.207647110E+02 -0.239579971E+01  0.265921126E+01
  Xx -0.280277821E-15 -0.156909501E+01 -0.215701169E+04
    11
 # iter = 47000  time[fs]=47.00000
   N -0.303853074E+01 -0.432243733E+01  0.249969501E+01
   N  0.303853074E+01 -0.432243733E+01  0.249969501E+01
   C -0.157825183E+01  0.273915251E+01  0.250473734E+01
   C  0.157825183E+01  0.273915251E+01  0.250473734E+01
   C -0.372176083E+01  0.840524667E+00  0.249179489E+01
   C  0.372176083E+01  0.840524667E+00  0.249179489E+01
   H -0.103006199E+02  0.170309532E+02  0.245779360E+01
   H  0.103006199E+02  0.170309532E+02  0.245779360E+01
   H -0.208902586E+02 -0.241484352E+01  0.266029099E+01
   H  0.208902586E+02 -0.241484352E+01  0.266029099E+01
  Xx -0.281789292E-15 -0.157127584E+01 -0.216865347E+04
    11
 # iter = 47250  time[fs]=47.25000
   N -0.305187829E+01 -0.434172653E+01  0.249977190E+01
   N  0.305187829E+01 -0.434172653E+01  0.249977190E+01
   C -0.158267600E+01  0.274392637E+01  0.250467647E+01
   C  0.158267600E+01  0.274392637E+01  0.250467647E+01
   C -0.373219507E+01  0.848221249E+00  0.249185413E+01
   C  0.373219507E+01  0.848221249E+00  0.249185413E+01
   H -0.103634400E+02  0.171337182E+02  0.245749465E+01
   H  0.103634400E+02  0.171337182E+02  0.245749465E+01
   H -0.210158779E+02 -0.243391176E+01  0.266137165E+01
   H  0.210158779E+02 -0.243391176E+01  0.266137165E+01
  Xx -0.283300763E-15 -0.157345667E+01 -0.218029524E+04
    11
 # iter = 47500  time[fs]=47.50000
   N -0.306518021E+01 -0.436096873E+01  0.249984806E+01
   N  0.306518021E+01 -0.436096873E+01  0.249984806E+01
   C -0.158712699E+01  0.274867246E+01  0.250461043E+01
   C  0.158712699E+01  0.274867246E+01  0.250461043E+01
   C -0.374258489E+01  0.855926156E+00  0.249192478E+01
   C  0.374258489E+01  0.855926156E+00  0.249192478E+01
   H -0.104263089E+02  0.172365541E+02  0.245719570E+01
   H  0.104263089E+02  0.172365541E+02  0.245719570E+01
   H -0.211415683E+02 -0.245300382E+01  0.266245322E+01
   H  0.211415683E+02 -0.245300382E+01  0.266245322E+01
  Xx -0.284812234E-15 -0.157563749E+01 -0.219193702E+04
    11
 # iter = 47750  time[fs]=47.75000
   N -0.307844499E+01 -0.438020881E+01  0.249992205E+01
   N  0.307844499E+01 -0.438020881E+01  0.249992205E+01
   C -0.159157019E+01  0.275338029E+01  0.250455169E+01
   C  0.159157019E+01  0.275338029E+01  0.250455169E+01
   C -0.375293802E+01  0.863660407E+00  0.249198172E+01
   C  0.375293802E+01  0.863660407E+00  0.249198172E+01
   H -0.104892241E+02  0.173394612E+02  0.245689675E+01
   H  0.104892241E+02  0.173394612E+02  0.245689675E+01
   H -0.212673297E+02 -0.247211921E+01  0.266353563E+01
   H  0.212673297E+02 -0.247211921E+01  0.266353563E+01
  Xx -0.286323705E-15 -0.157781832E+01 -0.220357879E+04
    11
 # iter = 48000  time[fs]=48.00000
   N -0.309166872E+01 -0.439947450E+01  0.249999196E+01
   N  0.309166872E+01 -0.439947450E+01  0.249999196E+01
   C -0.159603926E+01  0.275806340E+01  0.250448721E+01
   C  0.159603926E+01  0.275806340E+01  0.250448721E+01
   C -0.376324596E+01  0.871402436E+00  0.249204946E+01
   C  0.376324596E+01  0.871402436E+00  0.249204946E+01
   H -0.105521838E+02  0.174424393E+02  0.245659780E+01
   H  0.105521838E+02  0.174424393E+02  0.245659780E+01
   H -0.213931622E+02 -0.249125790E+01  0.266461913E+01
   H  0.213931622E+02 -0.249125790E+01  0.266461913E+01
  Xx -0.287835176E-15 -0.157999915E+01 -0.221522056E+04
    11
 # iter = 48250  time[fs]=48.25000
   N -0.310485682E+01 -0.441878967E+01  0.250006097E+01
   N  0.310485682E+01 -0.441878967E+01  0.250006097E+01
   C -0.160051502E+01  0.276270053E+01  0.250442926E+01
   C  0.160051502E+01  0.276270053E+01  0.250442926E+01
   C -0.377352220E+01  0.879163671E+00  0.249210999E+01
   C  0.377352220E+01  0.879163671E+00  0.249210999E+01
   H -0.106151878E+02  0.175454884E+02  0.245629885E+01
   H  0.106151878E+02  0.175454884E+02  0.245629885E+01
   H -0.215190658E+02 -0.251041991E+01  0.266570342E+01
   H  0.215190658E+02 -0.251041991E+01  0.266570342E+01
  Xx -0.289346647E-15 -0.158217997E+01 -0.222686234E+04
    11
 # iter = 48500  time[fs]=48.50000
   N -0.311802708E+01 -0.443818607E+01  0.250013377E+01
   N  0.311802708E+01 -0.443818607E+01  0.250013377E+01
   C -0.160499999E+01  0.276731154E+01  0.250436902E+01
   C  0.160499999E+01  0.276731154E+01  0.250436902E+01
   C -0.378374740E+01  0.886961834E+00  0.249217403E+01
   C  0.378374740E+01  0.886961834E+00  0.249217403E+01
   H -0.106782363E+02  0.176486041E+02  0.245599990E+01
   H  0.106782363E+02  0.176486041E+02  0.245599990E+01
   H -0.216450404E+02 -0.252960485E+01  0.266678842E+01
   H  0.216450404E+02 -0.252960485E+01  0.266678842E+01
  Xx -0.290858118E-15 -0.158436080E+01 -0.223850411E+04
    11
 # iter = 48750  time[fs]=48.75000
   N -0.313118771E+01 -0.445766647E+01  0.250020284E+01
   N  0.313118771E+01 -0.445766647E+01  0.250020284E+01
   C -0.160950211E+01  0.277187057E+01  0.250430346E+01
   C  0.160950211E+01  0.277187057E+01  0.250430346E+01
   C -0.379394537E+01  0.894774268E+00  0.249224198E+01
   C  0.379394537E+01  0.894774268E+00  0.249224198E+01
   H -0.107413292E+02  0.177517821E+02  0.245570095E+01
   H  0.107413292E+02  0.177517821E+02  0.245570095E+01
   H -0.217710861E+02 -0.254881238E+01  0.266787396E+01
   H  0.217710861E+02 -0.254881238E+01  0.266787396E+01
  Xx -0.292369589E-15 -0.158654163E+01 -0.225014589E+04
    11
 # iter = 49000  time[fs]=49.00000
   N -0.314435174E+01 -0.447721373E+01  0.250026131E+01
   N  0.314435174E+01 -0.447721373E+01  0.250026131E+01
   C -0.161400942E+01  0.277639969E+01  0.250424524E+01
   C  0.161400942E+01  0.277639969E+01  0.250424524E+01
   C -0.380408710E+01  0.902627837E+00  0.249230762E+01
   C  0.380408710E+01  0.902627837E+00  0.249230762E+01
   H -0.108044665E+02  0.178550222E+02  0.245540200E+01
   H  0.108044665E+02  0.178550222E+02  0.245540200E+01
   H -0.218972028E+02 -0.256804212E+01  0.266896007E+01
   H  0.218972028E+02 -0.256804212E+01  0.266896007E+01
  Xx -0.293881060E-15 -0.158872245E+01 -0.226178766E+04
    11
 # iter = 49250  time[fs]=49.25000
   N -0.315754224E+01 -0.449681046E+01  0.250032454E+01
   N  0.315754224E+01 -0.449681046E+01  0.250032454E+01
   C -0.161854437E+01  0.278086835E+01  0.250417419E+01
   C  0.161854437E+01  0.278086835E+01  0.250417419E+01
   C -0.381420949E+01  0.910513802E+00  0.249237353E+01
   C  0.381420949E+01  0.910513802E+00  0.249237353E+01
   H -0.108676482E+02  0.179583244E+02  0.245510305E+01
   H  0.108676482E+02  0.179583244E+02  0.245510305E+01
   H -0.220233905E+02 -0.258729406E+01  0.267004688E+01
   H  0.220233905E+02 -0.258729406E+01  0.267004688E+01
  Xx -0.295392531E-15 -0.159090328E+01 -0.227342943E+04
    11
 # iter = 49500  time[fs]=49.50000
   N -0.317077120E+01 -0.451642956E+01  0.250039140E+01
   N  0.317077120E+01 -0.451642956E+01  0.250039140E+01
   C -0.162308784E+01  0.278530358E+01  0.250410965E+01
   C  0.162308784E+01  0.278530358E+01  0.250410965E+01
   C -0.382427428E+01  0.918427584E+00  0.249244969E+01
   C  0.382427428E+01  0.918427584E+00  0.249244969E+01
   H -0.109308743E+02  0.180616889E+02  0.245480410E+01
   H  0.109308743E+02  0.180616889E+02  0.245480410E+01
   H -0.221496494E+02 -0.260656821E+01  0.267113451E+01
   H  0.221496494E+02 -0.260656821E+01  0.267113451E+01
  Xx -0.296904003E-15 -0.159308411E+01 -0.228507121E+04
    11
 # iter = 49750  time[fs]=49.75000
   N -0.318404027E+01 -0.453603753E+01  0.250045532E+01
   N  0.318404027E+01 -0.453603753E+01  0.250045532E+01
   C -0.162765717E+01  0.278968760E+01  0.250404904E+01
   C  0.162765717E+01  0.278968760E+01  0.250404904E+01
   C -0.383430807E+01  0.926385853E+00  0.249251403E+01
   C  0.383430807E+01  0.926385853E+00  0.249251403E+01
   H -0.109941448E+02  0.181651155E+02  0.245450515E+01
   H  0.109941448E+02  0.181651155E+02  0.245450515E+01
   H -0.222759747E+02 -0.262586456E+01  0.267222296E+01
   H  0.222759747E+02 -0.262586456E+01  0.267222296E+01
  Xx -0.298415474E-15 -0.159526493E+01 -0.229671298E+04
    11
 # iter = 50000  time[fs]=50.00000
   N -0.319735897E+01 -0.455560796E+01  0.250052132E+01
   N  0.319735897E+01 -0.455560796E+01  0.250052132E+01
   C -0.163225150E+01  0.279402812E+01  0.250397667E+01
   C  0.163225150E+01  0.279402812E+01  0.250397667E+01
   C -0.384429642E+01  0.934379594E+00  0.249258604E+01
   C  0.384429642E+01  0.934379594E+00  0.249258604E+01
   H -0.110574597E+02  0.182686043E+02  0.245420620E+01
   H  0.110574597E+02  0.182686043E+02  0.245420620E+01
   H -0.224023621E+02 -0.264518250E+01  0.267331252E+01
   H  0.224023621E+02 -0.264518250E+01  0.267331252E+01
  Xx -0.299926945E-15 -0.159744576E+01 -0.230835476E+04
    11
 # iter = 50250  time[fs]=50.25000
   N -0.321072382E+01 -0.457512097E+01  0.250058682E+01
   N  0.321072382E+01 -0.457512097E+01  0.250058682E+01
   C -0.163688203E+01  0.279831223E+01  0.250391142E+01
   C  0.163688203E+01  0.279831223E+01  0.250391142E+01
   C -0.385424266E+01  0.942399522E+00  0.249265739E+01
   C  0.385424266E+01  0.942399522E+00  0.249265739E+01
   H -0.111208186E+02  0.183721553E+02  0.245390725E+01
   H  0.111208186E+02  0.183721553E+02  0.245390725E+01
   H -0.225288118E+02 -0.266452154E+01  0.267440318E+01
   H  0.225288118E+02 -0.266452154E+01  0.267440318E+01
  Xx -0.301438416E-15 -0.159962659E+01 -0.231999653E+04
    11
 # iter = 50500  time[fs]=50.50000
   N -0.322412490E+01 -0.459458614E+01  0.250065601E+01
   N  0.322412490E+01 -0.459458614E+01  0.250065601E+01
   C -0.164154970E+01  0.280256180E+01  0.250384601E+01
   C  0.164154970E+01  0.280256180E+01  0.250384601E+01
   C -0.386414818E+01  0.950470813E+00  0.249272634E+01
   C  0.386414818E+01  0.950470813E+00  0.249272634E+01
   H -0.111842183E+02  0.184757684E+02  0.245360830E+01
   H  0.111842183E+02  0.184757684E+02  0.245360830E+01
   H -0.226553236E+02 -0.268388166E+01  0.267549496E+01
   H  0.226553236E+02 -0.268388166E+01  0.267549496E+01
  Xx -0.302949887E-15 -0.160180741E+01 -0.233163831E+04
    11
 # iter = 50750  time[fs]=50.75000
   N -0.323754790E+01 -0.461402434E+01  0.250072297E+01
   N  0.323754790E+01 -0.461402434E+01  0.250072297E+01
   C -0.164625936E+01  0.280675202E+01  0.250377769E+01
   C  0.164625936E+01  0.280675202E+01  0.250377769E+01
   C -0.387399994E+01  0.958574597E+00  0.249279897E+01
   C  0.387399994E+01  0.958574597E+00  0.249279897E+01
   H -0.112476579E+02  0.185794437E+02  0.245330935E+01
   H  0.112476579E+02  0.185794437E+02  0.245330935E+01
   H -0.227818976E+02 -0.270326289E+01  0.267658785E+01
   H  0.227818976E+02 -0.270326289E+01  0.267658785E+01
  Xx -0.304461358E-15 -0.160398824E+01 -0.234328008E+04
    11
 # iter = 51000  time[fs]=51.00000
   N -0.325098155E+01 -0.463344976E+01  0.250079087E+01
   N  0.325098155E+01 -0.463344976E+01  0.250079087E+01
   C -0.165102402E+01  0.281089392E+01  0.250370665E+01
   C  0.165102402E+01  0.281089392E+01  0.250370665E+01
   C -0.388382545E+01  0.966704001E+00  0.249287694E+01
   C  0.388382545E+01  0.966704001E+00  0.249287694E+01
   H -0.113111374E+02  0.186831812E+02  0.245301040E+01
   H  0.113111374E+02  0.186831812E+02  0.245301040E+01
   H -0.229085337E+02 -0.272266513E+01  0.267768184E+01
   H  0.229085337E+02 -0.272266513E+01  0.267768184E+01
  Xx -0.305972829E-15 -0.160616907E+01 -0.235492185E+04
    11
 # iter = 51250  time[fs]=51.25000
   N -0.326441939E+01 -0.465290161E+01  0.250086089E+01
   N  0.326441939E+01 -0.465290161E+01  0.250086089E+01
   C -0.165583646E+01  0.281499752E+01  0.250362818E+01
   C  0.165583646E+01  0.281499752E+01  0.250362818E+01
   C -0.389359501E+01  0.974890716E+00  0.249295015E+01
   C  0.389359501E+01  0.974890716E+00  0.249295015E+01
   H -0.113746570E+02  0.187869808E+02  0.245271145E+01
   H  0.113746570E+02  0.187869808E+02  0.245271145E+01
   H -0.230352321E+02 -0.274208757E+01  0.267877635E+01
   H  0.230352321E+02 -0.274208757E+01  0.267877635E+01
  Xx -0.307484300E-15 -0.160834989E+01 -0.236656363E+04
    11
 # iter = 51500  time[fs]=51.50000
   N -0.327783692E+01 -0.467241513E+01  0.250092540E+01
   N  0.327783692E+01 -0.467241513E+01  0.250092540E+01
   C -0.166070570E+01  0.281903461E+01  0.250354822E+01
   C  0.166070570E+01  0.281903461E+01  0.250354822E+01
   C -0.390333271E+01  0.983097363E+00  0.249304053E+01
   C  0.390333271E+01  0.983097363E+00  0.249304053E+01
   H -0.114382165E+02  0.188908425E+02  0.245241250E+01
   H  0.114382165E+02  0.188908425E+02  0.245241250E+01
   H -0.231619926E+02 -0.276153000E+01  0.267987129E+01
   H  0.231619926E+02 -0.276153000E+01  0.267987129E+01
  Xx -0.308995771E-15 -0.161053072E+01 -0.237820540E+04
    11
 # iter = 51750  time[fs]=51.75000
   N -0.329122424E+01 -0.469199606E+01  0.250098492E+01
   N  0.329122424E+01 -0.469199606E+01  0.250098492E+01
   C -0.166561850E+01  0.282303669E+01  0.250346210E+01
   C  0.166561850E+01  0.282303669E+01  0.250346210E+01
   C -0.391302095E+01  0.991349794E+00  0.249312791E+01
   C  0.391302095E+01  0.991349794E+00  0.249312791E+01
   H -0.115018159E+02  0.189947629E+02  0.245211355E+01
   H  0.115018159E+02  0.189947629E+02  0.245211355E+01
   H -0.232888152E+02 -0.278099242E+01  0.268096631E+01
   H  0.232888152E+02 -0.278099242E+01  0.268096631E+01
  Xx -0.310507242E-15 -0.161271155E+01 -0.238984718E+04
    11
 # iter = 52000  time[fs]=52.00000
   N -0.330457220E+01 -0.471164722E+01  0.250104464E+01
   N  0.330457220E+01 -0.471164722E+01  0.250104464E+01
   C -0.167058386E+01  0.282698502E+01  0.250336683E+01
   C  0.167058386E+01  0.282698502E+01  0.250336683E+01
   C -0.392269115E+01  0.999628876E+00  0.249322346E+01
   C  0.392269115E+01  0.999628876E+00  0.249322346E+01
   H -0.115654554E+02  0.190987378E+02  0.245181460E+01
   H  0.115654554E+02  0.190987378E+02  0.245181460E+01
   H -0.234157001E+02 -0.280047472E+01  0.268206132E+01
   H  0.234157001E+02 -0.280047472E+01  0.268206132E+01
  Xx -0.312018713E-15 -0.161489237E+01 -0.240148895E+04
    11
 # iter = 52250  time[fs]=52.25000
   N -0.331786847E+01 -0.473136281E+01  0.250110612E+01
   N  0.331786847E+01 -0.473136281E+01  0.250110612E+01
   C -0.167558580E+01  0.283088973E+01  0.250327137E+01
   C  0.167558580E+01  0.283088973E+01  0.250327137E+01
   C -0.393231036E+01  0.100794658E+01  0.249332296E+01
   C  0.393231036E+01  0.100794658E+01  0.249332296E+01
   H -0.116291338E+02  0.192027659E+02  0.245151565E+01
   H  0.116291338E+02  0.192027659E+02  0.245151565E+01
   H -0.235426471E+02 -0.281997608E+01  0.268315634E+01
   H  0.235426471E+02 -0.281997608E+01  0.268315634E+01
  Xx -0.313530184E-15 -0.161707320E+01 -0.241313072E+04
    11
 # iter = 52500  time[fs]=52.50000
   N -0.333111657E+01 -0.475111845E+01  0.250116492E+01
   N  0.333111657E+01 -0.475111845E+01  0.250116492E+01
   C -0.168062322E+01  0.283475145E+01  0.250317331E+01
   C  0.168062322E+01  0.283475145E+01  0.250317331E+01
   C -0.394191405E+01  0.101628835E+01  0.249342295E+01
   C  0.394191405E+01  0.101628835E+01  0.249342295E+01
   H -0.116928506E+02  0.193068474E+02  0.245121670E+01
   H  0.116928506E+02  0.193068474E+02  0.245121670E+01
   H -0.236696563E+02 -0.283949631E+01  0.268425162E+01
   H  0.236696563E+02 -0.283949631E+01  0.268425162E+01
  Xx -0.315041655E-15 -0.161925403E+01 -0.242477250E+04
    11
 # iter = 52750  time[fs]=52.75000
   N -0.334432086E+01 -0.477088448E+01  0.250121700E+01
   N  0.334432086E+01 -0.477088448E+01  0.250121700E+01
   C -0.168570188E+01  0.283856654E+01  0.250307988E+01
   C  0.168570188E+01  0.283856654E+01  0.250307988E+01
   C -0.395147356E+01  0.102466774E+01  0.249351986E+01
   C  0.395147356E+01  0.102466774E+01  0.249351986E+01
   H -0.117566039E+02  0.194109821E+02  0.245091775E+01
   H  0.117566039E+02  0.194109821E+02  0.245091775E+01
   H -0.237967277E+02 -0.285903541E+01  0.268534722E+01
   H  0.237967277E+02 -0.285903541E+01  0.268534722E+01
  Xx -0.316553126E-15 -0.162143485E+01 -0.243641427E+04
    11
 # iter = 53000  time[fs]=53.00000
   N -0.335748526E+01 -0.479063217E+01  0.250127011E+01
   N  0.335748526E+01 -0.479063217E+01  0.250127011E+01
   C -0.169080948E+01  0.284233586E+01  0.250298905E+01
   C  0.169080948E+01  0.284233586E+01  0.250298905E+01
   C -0.396102038E+01  0.103307047E+01  0.249362126E+01
   C  0.396102038E+01  0.103307047E+01  0.249362126E+01
   H -0.118203928E+02  0.195151702E+02  0.245061880E+01
   H  0.118203928E+02  0.195151702E+02  0.245061880E+01
   H -0.239238593E+02 -0.287859339E+01  0.268644362E+01
   H  0.239238593E+02 -0.287859339E+01  0.268644362E+01
  Xx -0.318064598E-15 -0.162361568E+01 -0.244805605E+04
    11
 # iter = 53250  time[fs]=53.25000
   N -0.337062342E+01 -0.481034743E+01  0.250132703E+01
   N  0.337062342E+01 -0.481034743E+01  0.250132703E+01
   C -0.169595105E+01  0.284606416E+01  0.250290027E+01
   C  0.169595105E+01  0.284606416E+01  0.250290027E+01
   C -0.397052630E+01  0.104150521E+01  0.249370959E+01
   C  0.397052630E+01  0.104150521E+01  0.249370959E+01
   H -0.118842171E+02  0.196194115E+02  0.245031985E+01
   H  0.118842171E+02  0.196194115E+02  0.245031985E+01
   H -0.240510448E+02 -0.289817024E+01  0.268754045E+01
   H  0.240510448E+02 -0.289817024E+01  0.268754045E+01
  Xx -0.319576069E-15 -0.162579651E+01 -0.245969782E+04
    11
 # iter = 53500  time[fs]=53.50000
   N -0.338375517E+01 -0.483002535E+01  0.250137396E+01
   N  0.338375517E+01 -0.483002535E+01  0.250137396E+01
   C -0.170111873E+01  0.284975582E+01  0.250282606E+01
   C  0.170111873E+01  0.284975582E+01  0.250282606E+01
   C -0.398000249E+01  0.104996462E+01  0.249379543E+01
   C  0.398000249E+01  0.104996462E+01  0.249379543E+01
   H -0.119480770E+02  0.197237061E+02  0.245002090E+01
   H  0.119480770E+02  0.197237061E+02  0.245002090E+01
   H -0.241782836E+02 -0.291776592E+01  0.268863759E+01
   H  0.241782836E+02 -0.291776592E+01  0.268863759E+01
  Xx -0.321087540E-15 -0.162797733E+01 -0.247133959E+04
    11
 # iter = 53750  time[fs]=53.75000
   N -0.339689480E+01 -0.484966050E+01  0.250141943E+01
   N  0.339689480E+01 -0.484966050E+01  0.250141943E+01
   C -0.170633497E+01  0.285339173E+01  0.250275108E+01
   C  0.170633497E+01  0.285339173E+01  0.250275108E+01
   C -0.398945851E+01  0.105845186E+01  0.249387903E+01
   C  0.398945851E+01  0.105845186E+01  0.249387903E+01
   H -0.120119724E+02  0.198280540E+02  0.244972195E+01
   H  0.120119724E+02  0.198280540E+02  0.244972195E+01
   H -0.243055756E+02 -0.293737964E+01  0.268973473E+01
   H  0.243055756E+02 -0.293737964E+01  0.268973473E+01
  Xx -0.322599011E-15 -0.163015816E+01 -0.248298137E+04
    11
 # iter = 54000  time[fs]=54.00000
   N -0.341005959E+01 -0.486927302E+01  0.250146760E+01
   N  0.341005959E+01 -0.486927302E+01  0.250146760E+01
   C -0.171157491E+01  0.285700800E+01  0.250268147E+01
   C  0.171157491E+01  0.285700800E+01  0.250268147E+01
   C -0.399887368E+01  0.106695233E+01  0.249395280E+01
   C  0.399887368E+01  0.106695233E+01  0.249395280E+01
   H -0.120759034E+02  0.199324552E+02  0.244942300E+01
   H  0.120759034E+02  0.199324552E+02  0.244942300E+01
   H -0.244329210E+02 -0.295701112E+01  0.269083187E+01
   H  0.244329210E+02 -0.295701112E+01  0.269083187E+01
  Xx -0.324110482E-15 -0.163233898E+01 -0.249462314E+04
    11
 # iter = 54250  time[fs]=54.25000
   N -0.342325879E+01 -0.488889383E+01  0.250151059E+01
   N  0.342325879E+01 -0.488889383E+01  0.250151059E+01
   C -0.171685951E+01  0.286057023E+01  0.250261743E+01
   C  0.171685951E+01  0.286057023E+01  0.250261743E+01
   C -0.400824129E+01  0.107548189E+01  0.249402793E+01
   C  0.400824129E+01  0.107548189E+01  0.249402793E+01
   H -0.121398698E+02  0.200369097E+02  0.244912405E+01
   H  0.121398698E+02  0.200369097E+02  0.244912405E+01
   H -0.245603196E+02 -0.297666036E+01  0.269192900E+01
   H  0.245603196E+02 -0.297666036E+01  0.269192900E+01
  Xx -0.325621953E-15 -0.163451981E+01 -0.250626492E+04
    11
 # iter = 54500  time[fs]=54.50000
   N -0.343649639E+01 -0.490854492E+01  0.250154871E+01
   N  0.343649639E+01 -0.490854492E+01  0.250154871E+01
   C -0.172216690E+01  0.286411240E+01  0.250254918E+01
   C  0.172216690E+01  0.286411240E+01  0.250254918E+01
   C -0.401758620E+01  0.108402901E+01  0.249410274E+01
   C  0.401758620E+01  0.108402901E+01  0.249410274E+01
   H -0.122038718E+02  0.201414175E+02  0.244882510E+01
   H  0.122038718E+02  0.201414175E+02  0.244882510E+01
   H -0.246877716E+02 -0.299632737E+01  0.269302614E+01
   H  0.246877716E+02 -0.299632737E+01  0.269302614E+01
  Xx -0.327133424E-15 -0.163670064E+01 -0.251790669E+04
    11
 # iter = 54750  time[fs]=54.75000
   N -0.344978972E+01 -0.492825554E+01  0.250158511E+01
   N  0.344978972E+01 -0.492825554E+01  0.250158511E+01
   C -0.172752706E+01  0.286761518E+01  0.250248010E+01
   C  0.172752706E+01  0.286761518E+01  0.250248010E+01
   C -0.402688255E+01  0.109258348E+01  0.249418208E+01
   C  0.402688255E+01  0.109258348E+01  0.249418208E+01
   H -0.122679094E+02  0.202459785E+02  0.244852615E+01
   H  0.122679094E+02  0.202459785E+02  0.244852615E+01
   H -0.248152768E+02 -0.301601214E+01  0.269412328E+01
   H  0.248152768E+02 -0.301601214E+01  0.269412328E+01
  Xx -0.328644895E-15 -0.163888146E+01 -0.252954846E+04
    11
 # iter = 55000  time[fs]=55.00000
   N -0.346313467E+01 -0.494803952E+01  0.250162314E+01
   N  0.346313467E+01 -0.494803952E+01  0.250162314E+01
   C -0.173290877E+01  0.287109273E+01  0.250240629E+01
   C  0.173290877E+01  0.287109273E+01  0.250240629E+01
   C -0.403613226E+01  0.110115440E+01  0.249426954E+01
   C  0.403613226E+01  0.110115440E+01  0.249426954E+01
   H -0.123319824E+02  0.203505929E+02  0.244822720E+01
   H  0.123319824E+02  0.203505929E+02  0.244822720E+01
   H -0.249428353E+02 -0.303571467E+01  0.269522041E+01
   H  0.249428353E+02 -0.303571467E+01  0.269522041E+01
  Xx -0.330156366E-15 -0.164106229E+01 -0.254119024E+04
    11
 # iter = 55250  time[fs]=55.25000
   N -0.347651575E+01 -0.496789289E+01  0.250165843E+01
   N  0.347651575E+01 -0.496789289E+01  0.250165843E+01
   C -0.173833129E+01  0.287454152E+01  0.250231996E+01
   C  0.173833129E+01  0.287454152E+01  0.250231996E+01
   C -0.404534581E+01  0.110975253E+01  0.249436008E+01
   C  0.404534581E+01  0.110975253E+01  0.249436008E+01
   H -0.123960910E+02  0.204552606E+02  0.244792825E+01
   H  0.123960910E+02  0.204552606E+02  0.244792825E+01
   H -0.250704471E+02 -0.305543461E+01  0.269631755E+01
   H  0.250704471E+02 -0.305543461E+01  0.269631755E+01
  Xx -0.331667837E-15 -0.164324312E+01 -0.255283201E+04
    11
 # iter = 55500  time[fs]=55.50000
   N -0.348992741E+01 -0.498779983E+01  0.250169047E+01
   N  0.348992741E+01 -0.498779983E+01  0.250169047E+01
   C -0.174378843E+01  0.287796221E+01  0.250223329E+01
   C  0.174378843E+01  0.287796221E+01  0.250223329E+01
   C -0.405451319E+01  0.111834977E+01  0.249446664E+01
   C  0.405451319E+01  0.111834977E+01  0.249446664E+01
   H -0.124602350E+02  0.205599815E+02  0.244762930E+01
   H  0.124602350E+02  0.205599815E+02  0.244762930E+01
   H -0.251981122E+02 -0.307517162E+01  0.269741469E+01
   H  0.251981122E+02 -0.307517162E+01  0.269741469E+01
  Xx -0.333179308E-15 -0.164542394E+01 -0.256447379E+04
    11
 # iter = 55750  time[fs]=55.75000
   N -0.350335608E+01 -0.500773244E+01  0.250172113E+01
   N  0.350335608E+01 -0.500773244E+01  0.250172113E+01
   C -0.174928397E+01  0.288135157E+01  0.250213756E+01
   C  0.174928397E+01  0.288135157E+01  0.250213756E+01
   C -0.406362900E+01  0.112698425E+01  0.249457388E+01
   C  0.406362900E+01  0.112698425E+01  0.249457388E+01
   H -0.125244118E+02  0.206647557E+02  0.244733035E+01
   H  0.125244118E+02  0.206647557E+02  0.244733035E+01
   H -0.253258306E+02 -0.309492529E+01  0.269851183E+01
   H  0.253258306E+02 -0.309492529E+01  0.269851183E+01
  Xx -0.334690779E-15 -0.164760477E+01 -0.257611556E+04
    11
 # iter = 56000  time[fs]=56.00000
   N -0.351677909E+01 -0.502766886E+01  0.250174817E+01
   N  0.351677909E+01 -0.502766886E+01  0.250174817E+01
   C -0.175481383E+01  0.288471345E+01  0.250203404E+01
   C  0.175481383E+01  0.288471345E+01  0.250203404E+01
   C -0.407271533E+01  0.113562655E+01  0.249468770E+01
   C  0.407271533E+01  0.113562655E+01  0.249468770E+01
   H -0.125886196E+02  0.207695784E+02  0.244703140E+01
   H  0.125886196E+02  0.207695784E+02  0.244703140E+01
   H -0.254536023E+02 -0.311469561E+01  0.269960896E+01
   H  0.254536023E+02 -0.311469561E+01  0.269960896E+01
  Xx -0.336202250E-15 -0.164978560E+01 -0.258775733E+04
    11
 # iter = 56250  time[fs]=56.25000
   N -0.353017446E+01 -0.504757998E+01  0.250177273E+01
   N  0.353017446E+01 -0.504757998E+01  0.250177273E+01
   C -0.176036666E+01  0.288804441E+01  0.250193497E+01
   C  0.176036666E+01  0.288804441E+01  0.250193497E+01
   C -0.408173829E+01  0.114431052E+01  0.249480596E+01
   C  0.408173829E+01  0.114431052E+01  0.249480596E+01
   H -0.126528584E+02  0.208744456E+02  0.244673245E+01
   H  0.126528584E+02  0.208744456E+02  0.244673245E+01
   H -0.255814272E+02 -0.313448258E+01  0.270070610E+01
   H  0.255814272E+02 -0.313448258E+01  0.270070610E+01
  Xx -0.337713721E-15 -0.165196642E+01 -0.259939911E+04
    11
 # iter = 56500  time[fs]=56.50000
   N -0.354352795E+01 -0.506744076E+01  0.250179831E+01
   N  0.354352795E+01 -0.506744076E+01  0.250179831E+01
   C -0.176596567E+01  0.289134755E+01  0.250183585E+01
   C  0.176596567E+01  0.289134755E+01  0.250183585E+01
   C -0.409073727E+01  0.115300115E+01  0.249491632E+01
   C  0.409073727E+01  0.115300115E+01  0.249491632E+01
   H -0.127171284E+02  0.209793571E+02  0.244643350E+01
   H  0.127171284E+02  0.209793571E+02  0.244643350E+01
   H -0.257093055E+02 -0.315428621E+01  0.270180324E+01
   H  0.257093055E+02 -0.315428621E+01  0.270180324E+01
  Xx -0.339225192E-15 -0.165414725E+01 -0.261104088E+04
    11
 # iter = 56750  time[fs]=56.75000
   N -0.355683037E+01 -0.508725220E+01  0.250181907E+01
   N  0.355683037E+01 -0.508725220E+01  0.250181907E+01
   C -0.177157649E+01  0.289461951E+01  0.250174023E+01
   C  0.177157649E+01  0.289461951E+01  0.250174023E+01
   C -0.409969103E+01  0.116173418E+01  0.249502662E+01
   C  0.409969103E+01  0.116173418E+01  0.249502662E+01
   H -0.127814295E+02  0.210843131E+02  0.244613455E+01
   H  0.127814295E+02  0.210843131E+02  0.244613455E+01
   H -0.258372370E+02 -0.317410649E+01  0.270290038E+01
   H  0.258372370E+02 -0.317410649E+01  0.270290038E+01
  Xx -0.340736664E-15 -0.165632808E+01 -0.262268266E+04
    11
 # iter = 57000  time[fs]=57.00000
   N -0.357006886E+01 -0.510702970E+01  0.250183941E+01
   N  0.357006886E+01 -0.510702970E+01  0.250183941E+01
   C -0.177721666E+01  0.289786501E+01  0.250165807E+01
   C  0.177721666E+01  0.289786501E+01  0.250165807E+01
   C -0.410860414E+01  0.117048376E+01  0.249512917E+01
   C  0.410860414E+01  0.117048376E+01  0.249512917E+01
   H -0.128457616E+02  0.211893134E+02  0.244583560E+01
   H  0.128457616E+02  0.211893134E+02  0.244583560E+01
   H -0.259652219E+02 -0.319394318E+01  0.270399751E+01
   H  0.259652219E+02 -0.319394318E+01  0.270399751E+01
  Xx -0.342248135E-15 -0.165850890E+01 -0.263432443E+04
    11
 # iter = 57250  time[fs]=57.25000
   N -0.358324201E+01 -0.512679035E+01  0.250185976E+01
   N  0.358324201E+01 -0.512679035E+01  0.250185976E+01
   C -0.178287887E+01  0.290108574E+01  0.250157789E+01
   C  0.178287887E+01  0.290108574E+01  0.250157789E+01
   C -0.411747618E+01  0.117927658E+01  0.249521991E+01
   C  0.411747618E+01  0.117927658E+01  0.249521991E+01
   H -0.129101249E+02  0.212943582E+02  0.244553665E+01
   H  0.129101249E+02  0.212943582E+02  0.244553665E+01
   H -0.260932584E+02 -0.321379547E+01  0.270509465E+01
   H  0.260932584E+02 -0.321379547E+01  0.270509465E+01
  Xx -0.343759606E-15 -0.166068973E+01 -0.264596620E+04
    11
 # iter = 57500  time[fs]=57.50000
   N -0.359636516E+01 -0.514656183E+01  0.250187646E+01
   N  0.359636516E+01 -0.514656183E+01  0.250187646E+01
   C -0.178857456E+01  0.290426980E+01  0.250150829E+01
   C  0.178857456E+01  0.290426980E+01  0.250150829E+01
   C -0.412631938E+01  0.118808333E+01  0.249530618E+01
   C  0.412631938E+01  0.118808333E+01  0.249530618E+01
   H -0.129745192E+02  0.213994474E+02  0.244523770E+01
   H  0.129745192E+02  0.213994474E+02  0.244523770E+01
   H -0.262213399E+02 -0.323366331E+01  0.270619179E+01
   H  0.262213399E+02 -0.323366331E+01  0.270619179E+01
  Xx -0.345271077E-15 -0.166287056E+01 -0.265760798E+04
    11
 # iter = 57750  time[fs]=57.75000
   N -0.360944696E+01 -0.516636489E+01  0.250189733E+01
   N  0.360944696E+01 -0.516636489E+01  0.250189733E+01
   C -0.179429148E+01  0.290743084E+01  0.250144883E+01
   C  0.179429148E+01  0.290743084E+01  0.250144883E+01
   C -0.413512046E+01  0.119693268E+01  0.249538885E+01
   C  0.413512046E+01  0.119693268E+01  0.249538885E+01
   H -0.130389446E+02  0.215045810E+02  0.244493875E+01
   H  0.130389446E+02  0.215045810E+02  0.244493875E+01
   H -0.263494659E+02 -0.325354669E+01  0.270728893E+01
   H  0.263494659E+02 -0.325354669E+01  0.270728893E+01
  Xx -0.346782548E-15 -0.166505138E+01 -0.266924975E+04
    11
 # iter = 58000  time[fs]=58.00000
   N -0.362249807E+01 -0.518621401E+01  0.250191829E+01
   N  0.362249807E+01 -0.518621401E+01  0.250191829E+01
   C -0.180002861E+01  0.291057117E+01  0.250138467E+01
   C  0.180002861E+01  0.291057117E+01  0.250138467E+01
   C -0.414388776E+01  0.120581001E+01  0.249546114E+01
   C  0.414388776E+01  0.120581001E+01  0.249546114E+01
   H -0.131034011E+02  0.216097590E+02  0.244463980E+01
   H  0.131034011E+02  0.216097590E+02  0.244463980E+01
   H -0.264776363E+02 -0.327344561E+01  0.270838606E+01
   H  0.264776363E+02 -0.327344561E+01  0.270838606E+01
  Xx -0.348294019E-15 -0.166723221E+01 -0.268089153E+04
    11
 # iter = 58250  time[fs]=58.25000
   N -0.363554394E+01 -0.520612275E+01  0.250193602E+01
   N  0.363554394E+01 -0.520612275E+01  0.250193602E+01
   C -0.180581765E+01  0.291367323E+01  0.250132433E+01
   C  0.180581765E+01  0.291367323E+01  0.250132433E+01
   C -0.415263053E+01  0.121470959E+01  0.249554666E+01
   C  0.415263053E+01  0.121470959E+01  0.249554666E+01
   H -0.131678887E+02  0.217149814E+02  0.244434085E+01
   H  0.131678887E+02  0.217149814E+02  0.244434085E+01
   H -0.266058511E+02 -0.329336008E+01  0.270948320E+01
   H  0.266058511E+02 -0.329336008E+01  0.270948320E+01
  Xx -0.349805490E-15 -0.166941304E+01 -0.269253330E+04
    11
 # iter = 58500  time[fs]=58.50000
   N -0.364861288E+01 -0.522607668E+01  0.250195283E+01
   N  0.364861288E+01 -0.522607668E+01  0.250195283E+01
   C -0.181162133E+01  0.291675058E+01  0.250126102E+01
   C  0.181162133E+01  0.291675058E+01  0.250126102E+01
   C -0.416132544E+01  0.122365090E+01  0.249562794E+01
   C  0.416132544E+01  0.122365090E+01  0.249562794E+01
   H -0.132324073E+02  0.218202482E+02  0.244404190E+01
   H  0.132324073E+02  0.218202482E+02  0.244404190E+01
   H -0.267341104E+02 -0.331329009E+01  0.271058034E+01
   H  0.267341104E+02 -0.331329009E+01  0.271058034E+01
  Xx -0.351316961E-15 -0.167159386E+01 -0.270417508E+04
    11
 # iter = 58750  time[fs]=58.75000
   N -0.366172596E+01 -0.524606147E+01  0.250196565E+01
   N  0.366172596E+01 -0.524606147E+01  0.250196565E+01
   C -0.181747875E+01  0.291979764E+01  0.250118293E+01
   C  0.181747875E+01  0.291979764E+01  0.250118293E+01
   C -0.417000598E+01  0.123261419E+01  0.249571954E+01
   C  0.417000598E+01  0.123261419E+01  0.249571954E+01
   H -0.132969571E+02  0.219255594E+02  0.244374295E+01
   H  0.132969571E+02  0.219255594E+02  0.244374295E+01
   H -0.268624140E+02 -0.333323504E+01  0.271167747E+01
   H  0.268624140E+02 -0.333323504E+01  0.271167747E+01
  Xx -0.352828432E-15 -0.167377469E+01 -0.271581685E+04
    11
 # iter = 59000  time[fs]=59.00000
   N -0.367489391E+01 -0.526606127E+01  0.250197685E+01
   N  0.367489391E+01 -0.526606127E+01  0.250197685E+01
   C -0.182336429E+01  0.292282228E+01  0.250110488E+01
   C  0.182336429E+01  0.292282228E+01  0.250110488E+01
   C -0.417863164E+01  0.124161478E+01  0.249582454E+01
   C  0.417863164E+01  0.124161478E+01  0.249582454E+01
   H -0.133615379E+02  0.220309151E+02  0.244344400E+01
   H  0.133615379E+02  0.220309151E+02  0.244344400E+01
   H -0.269907620E+02 -0.335319443E+01  0.271277461E+01
   H  0.269907620E+02 -0.335319443E+01  0.271277461E+01
  Xx -0.354339903E-15 -0.167595552E+01 -0.272745862E+04
    11
 # iter = 59250  time[fs]=59.25000
   N -0.368812875E+01 -0.528604826E+01  0.250198836E+01
   N  0.368812875E+01 -0.528604826E+01  0.250198836E+01
   C -0.182929109E+01  0.292580550E+01  0.250100952E+01
   C  0.182929109E+01  0.292580550E+01  0.250100952E+01
   C -0.418724672E+01  0.125064027E+01  0.249593269E+01
   C  0.418724672E+01  0.125064027E+01  0.249593269E+01
   H -0.134261498E+02  0.221363151E+02  0.244314505E+01
   H  0.134261498E+02  0.221363151E+02  0.244314505E+01
   H -0.271191545E+02 -0.337316825E+01  0.271387175E+01
   H  0.271191545E+02 -0.337316825E+01  0.271387175E+01
  Xx -0.355851374E-15 -0.167813634E+01 -0.273910040E+04
    11
 # iter = 59500  time[fs]=59.50000
   N -0.370143937E+01 -0.530600954E+01  0.250199248E+01
   N  0.370143937E+01 -0.530600954E+01  0.250199248E+01
   C -0.183526302E+01  0.292876965E+01  0.250091251E+01
   C  0.183526302E+01  0.292876965E+01  0.250091251E+01
   C -0.419581257E+01  0.125969898E+01  0.249605041E+01
   C  0.419581257E+01  0.125969898E+01  0.249605041E+01
   H -0.134907900E+02  0.222417596E+02  0.244284610E+01
   H  0.134907900E+02  0.222417596E+02  0.244284610E+01
   H -0.272475913E+02 -0.339315650E+01  0.271496889E+01
   H  0.272475913E+02 -0.339315650E+01  0.271496889E+01
  Xx -0.357362845E-15 -0.168031717E+01 -0.275074217E+04
    11
 # iter = 59750  time[fs]=59.75000
   N -0.371481169E+01 -0.532593902E+01  0.250198874E+01
   N  0.371481169E+01 -0.532593902E+01  0.250198874E+01
   C -0.184126903E+01  0.293170235E+01  0.250081267E+01
   C  0.184126903E+01  0.293170235E+01  0.250081267E+01
   C -0.420435577E+01  0.126877961E+01  0.249617585E+01
   C  0.420435577E+01  0.126877961E+01  0.249617585E+01
   H -0.135554568E+02  0.223472484E+02  0.244254715E+01
   H  0.135554568E+02  0.223472484E+02  0.244254715E+01
   H -0.273760726E+02 -0.341315919E+01  0.271606602E+01
   H  0.273760726E+02 -0.341315919E+01  0.271606602E+01
  Xx -0.358874316E-15 -0.168249800E+01 -0.276238395E+04
    11
 # iter = 60000  time[fs]=60.00000
   N -0.372822973E+01 -0.534583005E+01  0.250198360E+01
   N  0.372822973E+01 -0.534583005E+01  0.250198360E+01
   C -0.184731561E+01  0.293460233E+01  0.250070554E+01
   C  0.184731561E+01  0.293460233E+01  0.250070554E+01
   C -0.421285563E+01  0.127789817E+01  0.249629402E+01
   C  0.421285563E+01  0.127789817E+01  0.249629402E+01
   H -0.136201502E+02  0.224527817E+02  0.244224820E+01
   H  0.136201502E+02  0.224527817E+02  0.244224820E+01
   H -0.275045982E+02 -0.343317630E+01  0.271716316E+01
   H  0.275045982E+02 -0.343317630E+01  0.271716316E+01
  Xx -0.360385787E-15 -0.168467882E+01 -0.277402572E+04
