    11
 # iter =     0  time[fs]= 0.00000
   N -0.668466338E+00 -0.116463086E+01  0.250000000E+01
   N  0.668466338E+00 -0.116463086E+01  0.250000000E+01
   C -0.692277627E+00  0.124916000E+01  0.250000000E+01
   C  0.692277627E+00  0.124916000E+01  0.250000000E+01
   C -0.132315667E+01  0.433975300E-03  0.250000000E+01
   C  0.132315667E+01  0.433975300E-03  0.250000000E+01
   H -0.127180384E+01  0.216832769E+01  0.250000000E+01
   H  0.127180384E+01  0.216832769E+01  0.250000000E+01
   H -0.240769469E+01 -0.832907948E-01  0.250000000E+01
   H  0.240769469E+01 -0.832907948E-01  0.250000000E+01
  Xx  0.000000000E+00 -0.200000000E+02  0.250000000E+01
    11
 # iter =   250  time[fs]= 0.25000
   N -0.668479266E+00 -0.116464699E+01  0.250000000E+01
   N  0.668479266E+00 -0.116464699E+01  0.250000000E+01
   C -0.692272087E+00  0.124914183E+01  0.250000000E+01
   C  0.692272087E+00  0.124914183E+01  0.250000000E+01
   C -0.132312987E+01  0.434200692E-03  0.250000000E+01
   C  0.132312987E+01  0.434200692E-03  0.250000000E+01
   H -0.127181158E+01  0.216833886E+01  0.250000000E+01
   H  0.127181158E+01  0.216833886E+01  0.250000000E+01
   H -0.240778045E+01 -0.832843329E-01  0.250000000E+01
   H  0.240778045E+01 -0.832843329E-01  0.250000000E+01
  Xx  0.239299089E-20 -0.835699936E+01  0.250000000E+01
    11
 # iter =   500  time[fs]= 0.50000
   N -0.669836412E+00 -0.116466670E+01  0.250000000E+01
   N  0.669836412E+00 -0.116466670E+01  0.250000000E+01
   C -0.692771151E+00  0.124918870E+01  0.250000000E+01
   C  0.692771151E+00  0.124918870E+01  0.250000000E+01
   C -0.132330351E+01  0.568828415E-03  0.250000000E+01
   C  0.132330351E+01  0.568828415E-03  0.250000000E+01
   H -0.127233508E+01  0.216877726E+01  0.250000000E+01
   H  0.127233508E+01  0.216877726E+01  0.250000000E+01
   H -0.240858027E+01 -0.832967858E-01  0.250000000E+01
   H  0.240858027E+01 -0.832967858E-01  0.250000000E+01
  Xx -0.255629271E-18  0.328365316E+01  0.250000000E+01
    11
 # iter =   750  time[fs]= 0.75000
   N -0.673823619E+00 -0.116578691E+01  0.249999987E+01
   N  0.673823619E+00 -0.116578691E+01  0.249999987E+01
   C -0.695671037E+00  0.124956775E+01  0.249999974E+01
   C  0.695671037E+00  0.124956775E+01  0.249999974E+01
   C -0.132447311E+01  0.837456143E-03  0.249999982E+01
   C  0.132447311E+01  0.837456143E-03  0.249999982E+01
   H -0.127968737E+01  0.217569559E+01  0.249999856E+01
   H  0.127968737E+01  0.217569559E+01  0.249999856E+01
   H -0.241600295E+01 -0.837115724E-01  0.249999874E+01
   H  0.241600295E+01 -0.837115724E-01  0.249999874E+01
  Xx -0.170990951E-17  0.149237411E+02  0.249999947E+01
    11
 # iter =  1000  time[fs]= 1.00000
   N -0.678941166E+00 -0.116808951E+01  0.249999908E+01
   N  0.678941166E+00 -0.116808951E+01  0.249999908E+01
   C -0.699081823E+00  0.125067147E+01  0.249999868E+01
   C  0.699081823E+00  0.125067147E+01  0.249999868E+01
   C -0.132655386E+01  0.971031408E-03  0.249999902E+01
   C  0.132655386E+01  0.971031408E-03  0.249999902E+01
   H -0.129329338E+01  0.219209284E+01  0.249999328E+01
   H  0.129329338E+01  0.219209284E+01  0.249999328E+01
   H -0.243269505E+01 -0.847126317E-01  0.249999401E+01
   H  0.243269505E+01 -0.847126317E-01  0.249999401E+01
  Xx -0.321614080E-17  0.265641595E+02  0.249999738E+01
    11
 # iter =  1250  time[fs]= 1.25000
   N -0.685058542E+00 -0.117171062E+01  0.249999812E+01
   N  0.685058542E+00 -0.117171062E+01  0.249999812E+01
   C -0.703255951E+00  0.125222950E+01  0.249999700E+01
   C  0.703255951E+00  0.125222950E+01  0.249999700E+01
   C -0.132951297E+01  0.152344126E-02  0.249999756E+01
   C  0.132951297E+01  0.152344126E-02  0.249999756E+01
   H -0.131215196E+01  0.221664345E+01  0.249998679E+01
   H  0.131215196E+01  0.221664345E+01  0.249998679E+01
   H -0.245914947E+01 -0.864941710E-01  0.249998859E+01
   H  0.245914947E+01 -0.864941710E-01  0.249998859E+01
  Xx -0.472125816E-17  0.382046804E+02  0.249999514E+01
    11
 # iter =  1500  time[fs]= 1.50000
   N -0.692272670E+00 -0.117629863E+01  0.249999670E+01
   N  0.692272670E+00 -0.117629863E+01  0.249999670E+01
   C -0.708179123E+00  0.125452677E+01  0.249999482E+01
   C  0.708179123E+00  0.125452677E+01  0.249999482E+01
   C -0.133325877E+01  0.174942857E-02  0.249999577E+01
   C  0.133325877E+01  0.174942857E-02  0.249999577E+01
   H -0.133568377E+01  0.224913293E+01  0.249997719E+01
   H  0.133568377E+01  0.224913293E+01  0.249997719E+01
   H -0.249532423E+01 -0.890599173E-01  0.249998071E+01
   H  0.249532423E+01 -0.890599173E-01  0.249998071E+01
  Xx -0.622668413E-17  0.498452499E+02  0.249999289E+01
    11
 # iter =  1750  time[fs]= 1.75000
   N -0.700630065E+00 -0.118188440E+01  0.249999469E+01
   N  0.700630065E+00 -0.118188440E+01  0.249999469E+01
   C -0.714153269E+00  0.125737284E+01  0.249999211E+01
   C  0.714153269E+00  0.125737284E+01  0.249999211E+01
   C -0.133765648E+01  0.200788134E-02  0.249999431E+01
   C  0.133765648E+01  0.200788134E-02  0.249999431E+01
   H -0.136368362E+01  0.228865363E+01  0.249996681E+01
   H  0.136368362E+01  0.228865363E+01  0.249996681E+01
   H -0.254078893E+01 -0.923642056E-01  0.249996917E+01
   H  0.254078893E+01 -0.923642056E-01  0.249996917E+01
  Xx -0.773197795E-17  0.614858470E+02  0.249999064E+01
    11
 # iter =  2000  time[fs]= 2.00000
   N -0.709994354E+00 -0.118853778E+01  0.249999252E+01
   N  0.709994354E+00 -0.118853778E+01  0.249999252E+01
   C -0.720923027E+00  0.126071543E+01  0.249998903E+01
   C  0.720923027E+00  0.126071543E+01  0.249998903E+01
   C -0.134290572E+01  0.238689873E-02  0.249999276E+01
   C  0.134290572E+01  0.238689873E-02  0.249999276E+01
   H -0.139671480E+01  0.233525930E+01  0.249995366E+01
   H  0.139671480E+01  0.233525930E+01  0.249995366E+01
   H -0.259419241E+01 -0.962681926E-01  0.249995612E+01
   H  0.259419241E+01 -0.962681926E-01  0.249995612E+01
  Xx -0.923725536E-17  0.731264564E+02  0.249998840E+01
    11
 # iter =  2250  time[fs]= 2.25000
   N -0.720510611E+00 -0.119607058E+01  0.249999092E+01
   N  0.720510611E+00 -0.119607058E+01  0.249999092E+01
   C -0.728158686E+00  0.126478253E+01  0.249998614E+01
   C  0.728158686E+00  0.126478253E+01  0.249998614E+01
   C -0.134896333E+01  0.237665161E-02  0.249999153E+01
   C  0.134896333E+01  0.237665161E-02  0.249999153E+01
   H -0.143444714E+01  0.238922420E+01  0.249993571E+01
   H  0.143444714E+01  0.238922420E+01  0.249993571E+01
   H -0.265474037E+01 -0.100705892E+00  0.249993722E+01
   H  0.265474037E+01 -0.100705892E+00  0.249993722E+01
  Xx -0.107425796E-16  0.847670663E+02  0.249998615E+01
    11
 # iter =  2500  time[fs]= 2.50000
   N -0.732084293E+00 -0.120458802E+01  0.249998903E+01
   N  0.732084293E+00 -0.120458802E+01  0.249998903E+01
   C -0.735762481E+00  0.126954064E+01  0.249998366E+01
   C  0.735762481E+00  0.126954064E+01  0.249998366E+01
   C -0.135592873E+01  0.235623932E-02  0.249999022E+01
   C  0.135592873E+01  0.235623932E-02  0.249999022E+01
   H -0.147581546E+01  0.244906564E+01  0.249991334E+01
   H  0.147581546E+01  0.244906564E+01  0.249991334E+01
   H -0.272243563E+01 -0.105639143E+00  0.249991621E+01
   H  0.272243563E+01 -0.105639143E+00  0.249991621E+01
  Xx -0.122479019E-16  0.964076761E+02  0.249998390E+01
    11
 # iter =  2750  time[fs]= 2.75000
   N -0.744514463E+00 -0.121411298E+01  0.249998740E+01
   N  0.744514463E+00 -0.121411298E+01  0.249998740E+01
   C -0.743662378E+00  0.127512969E+01  0.249998142E+01
   C  0.743662378E+00  0.127512969E+01  0.249998142E+01
   C -0.136382737E+01  0.222454753E-02  0.249998941E+01
   C  0.136382737E+01  0.222454753E-02  0.249998941E+01
   H -0.152044509E+01  0.251413772E+01  0.249988808E+01
   H  0.152044509E+01  0.251413772E+01  0.249988808E+01
   H -0.279648145E+01 -0.111096804E+00  0.249989508E+01
   H  0.279648145E+01 -0.111096804E+00  0.249989508E+01
  Xx -0.137532452E-16  0.108048286E+03  0.249998165E+01
    11
 # iter =  3000  time[fs]= 3.00000
   N -0.757761973E+00 -0.122452804E+01  0.249998515E+01
   N  0.757761973E+00 -0.122452804E+01  0.249998515E+01
   C -0.752031172E+00  0.128138526E+01  0.249997881E+01
   C  0.752031172E+00  0.128138526E+01  0.249997881E+01
   C -0.137245225E+01  0.197030390E-02  0.249998839E+01
   C  0.137245225E+01  0.197030390E-02  0.249998839E+01
   H -0.156861857E+01  0.258432432E+01  0.249986083E+01
   H  0.156861857E+01  0.258432432E+01  0.249986083E+01
   H -0.287665843E+01 -0.117240731E+00  0.249987190E+01
   H  0.287665843E+01 -0.117240731E+00  0.249987190E+01
  Xx -0.152586165E-16  0.119688896E+03  0.249997941E+01
    11
 # iter =  3250  time[fs]= 3.25000
   N -0.771665114E+00 -0.123592731E+01  0.249998282E+01
   N  0.771665114E+00 -0.123592731E+01  0.249998282E+01
   C -0.760820428E+00  0.128813099E+01  0.249997613E+01
   C  0.760820428E+00  0.128813099E+01  0.249997613E+01
   C -0.138179800E+01  0.195714761E-02  0.249998859E+01
   C  0.138179800E+01  0.195714761E-02  0.249998859E+01
   H -0.161962713E+01  0.265953674E+01  0.249983298E+01
   H  0.161962713E+01  0.265953674E+01  0.249983298E+01
   H -0.296279329E+01 -0.124016626E+00  0.249984737E+01
   H  0.296279329E+01 -0.124016626E+00  0.249984737E+01
  Xx -0.167639770E-16  0.131329506E+03  0.249997716E+01
    11
 # iter =  3500  time[fs]= 3.50000
   N -0.786322082E+00 -0.124824878E+01  0.249998053E+01
   N  0.786322082E+00 -0.124824878E+01  0.249998053E+01
   C -0.769917681E+00  0.129535420E+01  0.249997306E+01
   C  0.769917681E+00  0.129535420E+01  0.249997306E+01
   C -0.139173359E+01  0.209286909E-02  0.249998874E+01
   C  0.139173359E+01  0.209286909E-02  0.249998874E+01
   H -0.167384399E+01  0.273958913E+01  0.249980130E+01
   H  0.167384399E+01  0.273958913E+01  0.249980130E+01
   H -0.305434593E+01 -0.131352417E+00  0.249981790E+01
   H  0.305434593E+01 -0.131352417E+00  0.249981790E+01
  Xx -0.182693441E-16  0.142970115E+03  0.249997491E+01
    11
 # iter =  3750  time[fs]= 3.75000
   N -0.801684534E+00 -0.126134841E+01  0.249997775E+01
   N  0.801684534E+00 -0.126134841E+01  0.249997775E+01
   C -0.779270347E+00  0.130307773E+01  0.249997008E+01
   C  0.779270347E+00  0.130307773E+01  0.249997008E+01
   C -0.140228214E+01  0.224091804E-02  0.249998898E+01
   C  0.140228214E+01  0.224091804E-02  0.249998898E+01
   H -0.173089606E+01  0.282416767E+01  0.249976641E+01
   H  0.173089606E+01  0.282416767E+01  0.249976641E+01
   H -0.315096341E+01 -0.139166983E+00  0.249979029E+01
   H  0.315096341E+01 -0.139166983E+00  0.249979029E+01
  Xx -0.197747073E-16  0.154610725E+03  0.249997267E+01
    11
 # iter =  4000  time[fs]= 4.00000
   N -0.817838861E+00 -0.127518768E+01  0.249997434E+01
   N  0.817838861E+00 -0.127518768E+01  0.249997434E+01
   C -0.788705189E+00  0.131135493E+01  0.249996789E+01
   C  0.788705189E+00  0.131135493E+01  0.249996789E+01
   C -0.141350296E+01  0.240933264E-02  0.249998928E+01
   C  0.141350296E+01  0.240933264E-02  0.249998928E+01
   H -0.179052090E+01  0.291254943E+01  0.249973310E+01
   H  0.179052090E+01  0.291254943E+01  0.249973310E+01
   H -0.325252547E+01 -0.147299784E+00  0.249975886E+01
   H  0.325252547E+01 -0.147299784E+00  0.249975886E+01
  Xx -0.212800636E-16  0.166251335E+03  0.249997042E+01
    11
 # iter =  4250  time[fs]= 4.25000
   N -0.834559238E+00 -0.128969086E+01  0.249997104E+01
   N  0.834559238E+00 -0.128969086E+01  0.249997104E+01
   C -0.798225241E+00  0.132019807E+01  0.249996650E+01
   C  0.798225241E+00  0.132019807E+01  0.249996650E+01
   C -0.142548274E+01  0.256654251E-02  0.249998953E+01
   C  0.142548274E+01  0.256654251E-02  0.249998953E+01
   H -0.185245031E+01  0.300456479E+01  0.249969671E+01
   H  0.185245031E+01  0.300456479E+01  0.249969671E+01
   H -0.335860947E+01 -0.156009702E+00  0.249972534E+01
   H  0.335860947E+01 -0.156009702E+00  0.249972534E+01
  Xx -0.227854182E-16  0.177891945E+03  0.249996817E+01
    11
 # iter =  4500  time[fs]= 4.50000
   N -0.851679323E+00 -0.130492653E+01  0.249996769E+01
   N  0.851679323E+00 -0.130492653E+01  0.249996769E+01
   C -0.807911845E+00  0.132964672E+01  0.249996527E+01
   C  0.807911845E+00  0.132964672E+01  0.249996527E+01
   C -0.143818383E+01  0.274175702E-02  0.249998911E+01
   C  0.143818383E+01  0.274175702E-02  0.249998911E+01
   H -0.191653498E+01  0.309993206E+01  0.249965839E+01
   H  0.191653498E+01  0.309993206E+01  0.249965839E+01
   H -0.346883842E+01 -0.165197050E+00  0.249968926E+01
   H  0.346883842E+01 -0.165197050E+00  0.249968926E+01
  Xx -0.242907803E-16  0.189532555E+03  0.249996592E+01
    11
 # iter =  4750  time[fs]= 4.75000
   N -0.869375999E+00 -0.132079449E+01  0.249996451E+01
   N  0.869375999E+00 -0.132079449E+01  0.249996451E+01
   C -0.817484877E+00  0.133965931E+01  0.249996474E+01
   C  0.817484877E+00  0.133965931E+01  0.249996474E+01
   C -0.145155043E+01  0.296724987E-02  0.249998872E+01
   C  0.145155043E+01  0.296724987E-02  0.249998872E+01
   H -0.198267533E+01  0.319843775E+01  0.249961508E+01
   H  0.198267533E+01  0.319843775E+01  0.249961508E+01
   H -0.358306732E+01 -0.174966076E+00  0.249965267E+01
   H  0.358306732E+01 -0.174966076E+00  0.249965267E+01
  Xx -0.257961411E-16  0.201173165E+03  0.249996368E+01
    11
 # iter =  5000  time[fs]= 5.00000
   N -0.887544576E+00 -0.133726391E+01  0.249996065E+01
   N  0.887544576E+00 -0.133726391E+01  0.249996065E+01
   C -0.827206345E+00  0.135020661E+01  0.249996420E+01
   C  0.827206345E+00  0.135020661E+01  0.249996420E+01
   C -0.146543266E+01  0.318609994E-02  0.249998845E+01
   C  0.146543266E+01  0.318609994E-02  0.249998845E+01
   H -0.205079313E+01  0.330004512E+01  0.249956404E+01
   H  0.205079313E+01  0.330004512E+01  0.249956404E+01
   H -0.370095591E+01 -0.185278054E+00  0.249961447E+01
   H  0.370095591E+01 -0.185278054E+00  0.249961447E+01
  Xx -0.273015044E-16  0.212813774E+03  0.249996143E+01
    11
 # iter =  5250  time[fs]= 5.25000
   N -0.905964336E+00 -0.135441086E+01  0.249995797E+01
   N  0.905964336E+00 -0.135441086E+01  0.249995797E+01
   C -0.837082483E+00  0.136118634E+01  0.249996337E+01
   C  0.837082483E+00  0.136118634E+01  0.249996337E+01
   C -0.147993172E+01  0.353551995E-02  0.249998759E+01
   C  0.147993172E+01  0.353551995E-02  0.249998759E+01
   H -0.212065115E+01  0.340456162E+01  0.249951037E+01
   H  0.212065115E+01  0.340456162E+01  0.249951037E+01
   H -0.382220753E+01 -0.196125358E+00  0.249957763E+01
   H  0.382220753E+01 -0.196125358E+00  0.249957763E+01
  Xx -0.288068638E-16  0.224454384E+03  0.249995918E+01
    11
 # iter =  5500  time[fs]= 5.50000
   N -0.924570056E+00 -0.137206803E+01  0.249995469E+01
   N  0.924570056E+00 -0.137206803E+01  0.249995469E+01
   C -0.847042216E+00  0.137281980E+01  0.249996345E+01
   C  0.847042216E+00  0.137281980E+01  0.249996345E+01
   C -0.149501161E+01  0.376031727E-02  0.249998636E+01
   C  0.149501161E+01  0.376031727E-02  0.249998636E+01
   H -0.219209549E+01  0.351157324E+01  0.249945316E+01
   H  0.219209549E+01  0.351157324E+01  0.249945316E+01
   H -0.394671533E+01 -0.207368813E+00  0.249953955E+01
   H  0.394671533E+01 -0.207368813E+00  0.249953955E+01
  Xx -0.303122239E-16  0.236094994E+03  0.249995694E+01
    11
 # iter =  5750  time[fs]= 5.75000
   N -0.943426630E+00 -0.139015650E+01  0.249995128E+01
   N  0.943426630E+00 -0.139015650E+01  0.249995128E+01
   C -0.857222388E+00  0.138502289E+01  0.249996307E+01
   C  0.857222388E+00  0.138502289E+01  0.249996307E+01
   C -0.151062160E+01  0.359907874E-02  0.249998642E+01
   C  0.151062160E+01  0.359907874E-02  0.249998642E+01
   H -0.226505055E+01  0.362111017E+01  0.249939738E+01
   H  0.226505055E+01  0.362111017E+01  0.249939738E+01
   H -0.407422767E+01 -0.219126947E+00  0.249950000E+01
   H  0.407422767E+01 -0.219126947E+00  0.249950000E+01
  Xx -0.318175902E-16  0.247735604E+03  0.249995469E+01
    11
 # iter =  6000  time[fs]= 6.00000
   N -0.962601398E+00 -0.140862116E+01  0.249994784E+01
   N  0.962601398E+00 -0.140862116E+01  0.249994784E+01
   C -0.867409236E+00  0.139786631E+01  0.249996288E+01
   C  0.867409236E+00  0.139786631E+01  0.249996288E+01
   C -0.152663172E+01  0.318637516E-02  0.249998658E+01
   C  0.152663172E+01  0.318637516E-02  0.249998658E+01
   H -0.233935573E+01  0.373284728E+01  0.249933890E+01
   H  0.233935573E+01  0.373284728E+01  0.249933890E+01
   H -0.420477103E+01 -0.231189538E+00  0.249946086E+01
   H  0.420477103E+01 -0.231189538E+00  0.249946086E+01
  Xx -0.333229518E-16  0.259376214E+03  0.249995244E+01
    11
 # iter =  6250  time[fs]= 6.25000
   N -0.982016936E+00 -0.142774432E+01  0.249994441E+01
   N  0.982016936E+00 -0.142774432E+01  0.249994441E+01
   C -0.877782453E+00  0.141099379E+01  0.249996319E+01
   C  0.877782453E+00  0.141099379E+01  0.249996319E+01
   C -0.154300087E+01  0.299714933E-02  0.249998649E+01
   C  0.154300087E+01  0.299714933E-02  0.249998649E+01
   H -0.241499353E+01  0.384667598E+01  0.249928012E+01
   H  0.241499353E+01  0.384667598E+01  0.249928012E+01
   H -0.433799129E+01 -0.243698523E+00  0.249942074E+01
   H  0.433799129E+01 -0.243698523E+00  0.249942074E+01
  Xx -0.348283140E-16  0.271016824E+03  0.249995020E+01
    11
 # iter =  6500  time[fs]= 6.50000
   N -0.100158800E+01 -0.144746442E+01  0.249994085E+01
   N  0.100158800E+01 -0.144746442E+01  0.249994085E+01
   C -0.888363270E+00  0.142432919E+01  0.249996362E+01
   C  0.888363270E+00  0.142432919E+01  0.249996362E+01
   C -0.155972516E+01  0.310322362E-02  0.249998592E+01
   C  0.155972516E+01  0.310322362E-02  0.249998592E+01
   H -0.249181466E+01  0.396245219E+01  0.249922068E+01
   H  0.249181466E+01  0.396245219E+01  0.249922068E+01
   H -0.447366334E+01 -0.256500451E+00  0.249937816E+01
   H  0.447366334E+01 -0.256500451E+00  0.249937816E+01
  Xx -0.363336825E-16  0.282657433E+03  0.249994795E+01
    11
 # iter =  6750  time[fs]= 6.75000
   N -0.102133211E+01 -0.146769976E+01  0.249993712E+01
   N  0.102133211E+01 -0.146769976E+01  0.249993712E+01
   C -0.898897839E+00  0.143799925E+01  0.249996428E+01
   C  0.898897839E+00  0.143799925E+01  0.249996428E+01
   C -0.157690906E+01  0.330190401E-02  0.249998563E+01
   C  0.157690906E+01  0.330190401E-02  0.249998563E+01
   H -0.256977780E+01  0.408005236E+01  0.249915355E+01
   H  0.256977780E+01  0.408005236E+01  0.249915355E+01
   H -0.461167940E+01 -0.269595235E+00  0.249933392E+01
   H  0.461167940E+01 -0.269595235E+00  0.249933392E+01
  Xx -0.378390523E-16  0.294298043E+03  0.249994570E+01
    11
 # iter =  7000  time[fs]= 7.00000
   N -0.104143574E+01 -0.148836708E+01  0.249993387E+01
   N  0.104143574E+01 -0.148836708E+01  0.249993387E+01
   C -0.909422188E+00  0.145209346E+01  0.249996471E+01
   C  0.909422188E+00  0.145209346E+01  0.249996471E+01
   C -0.159448288E+01  0.343014529E-02  0.249998515E+01
   C  0.159448288E+01  0.343014529E-02  0.249998515E+01
   H -0.264874405E+01  0.419930730E+01  0.249908599E+01
   H  0.264874405E+01  0.419930730E+01  0.249908599E+01
   H -0.475190625E+01 -0.283064432E+00  0.249928676E+01
   H  0.475190625E+01 -0.283064432E+00  0.249928676E+01
  Xx -0.393444270E-16  0.305938653E+03  0.249994345E+01
    11
 # iter =  7250  time[fs]= 7.25000
   N -0.106162071E+01 -0.150940957E+01  0.249993091E+01
   N  0.106162071E+01 -0.150940957E+01  0.249993091E+01
   C -0.920127795E+00  0.146652255E+01  0.249996585E+01
   C  0.920127795E+00  0.146652255E+01  0.249996585E+01
   C -0.161238744E+01  0.357676919E-02  0.249998461E+01
   C  0.161238744E+01  0.357676919E-02  0.249998461E+01
   H -0.272871494E+01  0.432010802E+01  0.249901813E+01
   H  0.272871494E+01  0.432010802E+01  0.249901813E+01
   H -0.489415418E+01 -0.296780152E+00  0.249924140E+01
   H  0.489415418E+01 -0.296780152E+00  0.249924140E+01
  Xx -0.408497968E-16  0.317579263E+03  0.249994121E+01
    11
 # iter =  7500  time[fs]= 7.50000
   N -0.108177033E+01 -0.153088693E+01  0.249992734E+01
   N  0.108177033E+01 -0.153088693E+01  0.249992734E+01
   C -0.931098762E+00  0.148110269E+01  0.249996709E+01
   C  0.931098762E+00  0.148110269E+01  0.249996709E+01
   C -0.163069988E+01  0.394318521E-02  0.249998421E+01
   C  0.163069988E+01  0.394318521E-02  0.249998421E+01
   H -0.280961427E+01  0.444235884E+01  0.249895363E+01
   H  0.280961427E+01  0.444235884E+01  0.249895363E+01
   H -0.503829981E+01 -0.310747442E+00  0.249919263E+01
   H  0.503829981E+01 -0.310747442E+00  0.249919263E+01
  Xx -0.423551660E-16  0.329219873E+03  0.249993896E+01
    11
 # iter =  7750  time[fs]= 7.75000
   N -0.110200024E+01 -0.155269656E+01  0.249992406E+01
   N  0.110200024E+01 -0.155269656E+01  0.249992406E+01
   C -0.942198007E+00  0.149600415E+01  0.249996795E+01
   C  0.942198007E+00  0.149600415E+01  0.249996795E+01
   C -0.164924164E+01  0.432619981E-02  0.249998408E+01
   C  0.164924164E+01  0.432619981E-02  0.249998408E+01
   H -0.289131335E+01  0.456597417E+01  0.249888519E+01
   H  0.289131335E+01  0.456597417E+01  0.249888519E+01
   H -0.518425970E+01 -0.325041482E+00  0.249914263E+01
   H  0.518425970E+01 -0.325041482E+00  0.249914263E+01
  Xx -0.438605404E-16  0.340860483E+03  0.249993671E+01
    11
 # iter =  8000  time[fs]= 8.00000
   N -0.112227598E+01 -0.157481843E+01  0.249992103E+01
   N  0.112227598E+01 -0.157481843E+01  0.249992103E+01
   C -0.953514140E+00  0.151121093E+01  0.249996865E+01
   C  0.953514140E+00  0.151121093E+01  0.249996865E+01
   C -0.166803620E+01  0.468713176E-02  0.249998402E+01
   C  0.166803620E+01  0.468713176E-02  0.249998402E+01
   H -0.297383623E+01  0.469083990E+01  0.249881729E+01
   H  0.297383623E+01  0.469083990E+01  0.249881729E+01
   H -0.533188431E+01 -0.339670654E+00  0.249909125E+01
   H  0.533188431E+01 -0.339670654E+00  0.249909125E+01
  Xx -0.453659207E-16  0.352501092E+03  0.249993447E+01
    11
 # iter =  8250  time[fs]= 8.25000
   N -0.114266413E+01 -0.159718982E+01  0.249991772E+01
   N  0.114266413E+01 -0.159718982E+01  0.249991772E+01
   C -0.964800386E+00  0.152682620E+01  0.249996796E+01
   C  0.964800386E+00  0.152682620E+01  0.249996796E+01
   C -0.168710504E+01  0.494381010E-02  0.249998512E+01
   C  0.168710504E+01  0.494381010E-02  0.249998512E+01
   H -0.305712360E+01  0.481694405E+01  0.249874577E+01
   H  0.305712360E+01  0.481694405E+01  0.249874577E+01
   H -0.548105708E+01 -0.354532210E+00  0.249903665E+01
   H  0.548105708E+01 -0.354532210E+00  0.249903665E+01
  Xx -0.468713152E-16  0.364141702E+03  0.249993222E+01
    11
 # iter =  8500  time[fs]= 8.50000
   N -0.116320596E+01 -0.161976766E+01  0.249991420E+01
   N  0.116320596E+01 -0.161976766E+01  0.249991420E+01
   C -0.976089665E+00  0.154276171E+01  0.249996725E+01
   C  0.976089665E+00  0.154276171E+01  0.249996725E+01
   C -0.170650282E+01  0.508353297E-02  0.249998726E+01
   C  0.170650282E+01  0.508353297E-02  0.249998726E+01
   H -0.314107537E+01  0.494414138E+01  0.249867462E+01
   H  0.314107537E+01  0.494414138E+01  0.249867462E+01
   H -0.563174260E+01 -0.369653227E+00  0.249898041E+01
   H  0.563174260E+01 -0.369653227E+00  0.249898041E+01
  Xx -0.483767195E-16  0.375782312E+03  0.249992997E+01
    11
 # iter =  8750  time[fs]= 8.75000
   N -0.118390597E+01 -0.164260755E+01  0.249991052E+01
   N  0.118390597E+01 -0.164260755E+01  0.249991052E+01
   C -0.987342853E+00  0.155899026E+01  0.249996586E+01
   C  0.987342853E+00  0.155899026E+01  0.249996586E+01
   C -0.172618490E+01  0.520823826E-02  0.249998983E+01
   C  0.172618490E+01  0.520823826E-02  0.249998983E+01
   H -0.322570851E+01  0.507241364E+01  0.249860346E+01
   H  0.322570851E+01  0.507241364E+01  0.249860346E+01
   H -0.578375553E+01 -0.385008623E+00  0.249892343E+01
   H  0.578375553E+01 -0.385008623E+00  0.249892343E+01
  Xx -0.498821493E-16  0.387422922E+03  0.249992772E+01
    11
 # iter =  9000  time[fs]= 9.00000
   N -0.120485223E+01 -0.166568131E+01  0.249990736E+01
   N  0.120485223E+01 -0.166568131E+01  0.249990736E+01
   C -0.998628370E+00  0.157543548E+01  0.249996554E+01
   C  0.998628370E+00  0.157543548E+01  0.249996554E+01
   C -0.174604743E+01  0.523124528E-02  0.249999171E+01
   C  0.174604743E+01  0.523124528E-02  0.249999171E+01
   H -0.331099740E+01  0.520170553E+01  0.249852849E+01
   H  0.331099740E+01  0.520170553E+01  0.249852849E+01
   H -0.593705806E+01 -0.400597000E+00  0.249886224E+01
   H  0.593705806E+01 -0.400597000E+00  0.249886224E+01
  Xx -0.513875925E-16  0.399063532E+03  0.249992548E+01
    11
 # iter =  9250  time[fs]= 9.25000
   N -0.122585048E+01 -0.168907659E+01  0.249990421E+01
   N  0.122585048E+01 -0.168907659E+01  0.249990421E+01
   C -0.101010115E+01  0.159202870E+01  0.249996582E+01
   C  0.101010115E+01  0.159202870E+01  0.249996582E+01
   C -0.176610452E+01  0.538258092E-02  0.249999289E+01
   C  0.176610452E+01  0.538258092E-02  0.249999289E+01
   H -0.339687116E+01  0.533191414E+01  0.249845521E+01
   H  0.339687116E+01  0.533191414E+01  0.249845521E+01
   H -0.609157544E+01 -0.416401661E+00  0.249879821E+01
   H  0.609157544E+01 -0.416401661E+00  0.249879821E+01
  Xx -0.528929946E-16  0.410704142E+03  0.249992323E+01
    11
 # iter =  9500  time[fs]= 9.50000
   N -0.124696534E+01 -0.171273535E+01  0.249990083E+01
   N  0.124696534E+01 -0.171273535E+01  0.249990083E+01
   C -0.102175836E+01  0.160871284E+01  0.249996684E+01
   C  0.102175836E+01  0.160871284E+01  0.249996684E+01
   C -0.178639626E+01  0.563589847E-02  0.249999458E+01
   C  0.178639626E+01  0.563589847E-02  0.249999458E+01
   H -0.348331316E+01  0.546304256E+01  0.249837826E+01
   H  0.348331316E+01  0.546304256E+01  0.249837826E+01
   H -0.624716946E+01 -0.432409513E+00  0.249873430E+01
   H  0.624716946E+01 -0.432409513E+00  0.249873430E+01
  Xx -0.543984047E-16  0.422344751E+03  0.249992098E+01
    11
 # iter =  9750  time[fs]= 9.75000
   N -0.126814184E+01 -0.173672224E+01  0.249989706E+01
   N  0.126814184E+01 -0.173672224E+01  0.249989706E+01
   C -0.103356358E+01  0.162560573E+01  0.249996661E+01
   C  0.103356358E+01  0.162560573E+01  0.249996661E+01
   C -0.180686749E+01  0.586837496E-02  0.249999657E+01
   C  0.180686749E+01  0.586837496E-02  0.249999657E+01
   H -0.357027341E+01  0.559504142E+01  0.249829964E+01
   H  0.357027341E+01  0.559504142E+01  0.249829964E+01
   H -0.640389161E+01 -0.448625272E+00  0.249867186E+01
   H  0.640389161E+01 -0.448625272E+00  0.249867186E+01
  Xx -0.559038160E-16  0.433985361E+03  0.249991874E+01
    11
 # iter = 10000  time[fs]=10.00000
   N -0.128947193E+01 -0.176090554E+01  0.249989336E+01
   N  0.128947193E+01 -0.176090554E+01  0.249989336E+01
   C -0.104537942E+01  0.164276136E+01  0.249996662E+01
   C  0.104537942E+01  0.164276136E+01  0.249996662E+01
   C -0.182740444E+01  0.610664023E-02  0.249999839E+01
   C  0.182740444E+01  0.610664023E-02  0.249999839E+01
   H -0.365769782E+01  0.572783085E+01  0.249822183E+01
   H  0.365769782E+01  0.572783085E+01  0.249822183E+01
   H -0.656163857E+01 -0.465025947E+00  0.249860800E+01
   H  0.656163857E+01 -0.465025947E+00  0.249860800E+01
  Xx -0.574092418E-16  0.445625971E+03  0.249991649E+01
    11
 # iter = 10250  time[fs]=10.25000
   N -0.131085915E+01 -0.178527138E+01  0.249988982E+01
   N  0.131085915E+01 -0.178527138E+01  0.249988982E+01
   C -0.105727381E+01  0.166008068E+01  0.249996716E+01
   C  0.105727381E+01  0.166008068E+01  0.249996716E+01
   C -0.184804914E+01  0.626532563E-02  0.249999964E+01
   C  0.184804914E+01  0.626532563E-02  0.249999964E+01
   H -0.374563819E+01  0.586138734E+01  0.249814243E+01
   H  0.374563819E+01  0.586138734E+01  0.249814243E+01
   H -0.672031753E+01 -0.481629957E+00  0.249854346E+01
   H  0.672031753E+01 -0.481629957E+00  0.249854346E+01
  Xx -0.589146885E-16  0.457266581E+03  0.249991424E+01
    11
 # iter = 10500  time[fs]=10.50000
   N -0.133222579E+01 -0.180974163E+01  0.249988620E+01
   N  0.133222579E+01 -0.180974163E+01  0.249988620E+01
   C -0.106920638E+01  0.167770007E+01  0.249996855E+01
   C  0.106920638E+01  0.167770007E+01  0.249996855E+01
   C -0.186883539E+01  0.628363267E-02  0.250000146E+01
   C  0.186883539E+01  0.628363267E-02  0.250000146E+01
   H -0.383403973E+01  0.599568653E+01  0.249806174E+01
   H  0.383403973E+01  0.599568653E+01  0.249806174E+01
   H -0.687998248E+01 -0.498399571E+00  0.249848020E+01
   H  0.687998248E+01 -0.498399571E+00  0.249848020E+01
  Xx -0.604201546E-16  0.468907191E+03  0.249991199E+01
    11
 # iter = 10750  time[fs]=10.75000
   N -0.135360419E+01 -0.183431125E+01  0.249988260E+01
   N  0.135360419E+01 -0.183431125E+01  0.249988260E+01
   C -0.108110438E+01  0.169554558E+01  0.249996888E+01
   C  0.108110438E+01  0.169554558E+01  0.249996888E+01
   C -0.188992762E+01  0.622611064E-02  0.250000378E+01
   C  0.188992762E+01  0.622611064E-02  0.250000378E+01
   H -0.392287658E+01  0.613067449E+01  0.249798103E+01
   H  0.392287658E+01  0.613067449E+01  0.249798103E+01
   H -0.704052543E+01 -0.515351671E+00  0.249841446E+01
   H  0.704052543E+01 -0.515351671E+00  0.249841446E+01
  Xx -0.619256221E-16  0.480547801E+03  0.249990975E+01
    11
 # iter = 11000  time[fs]=11.00000
   N -0.137495626E+01 -0.185892468E+01  0.249987887E+01
   N  0.137495626E+01 -0.185892468E+01  0.249987887E+01
   C -0.109317011E+01  0.171348760E+01  0.249996990E+01
   C  0.109317011E+01  0.171348760E+01  0.249996990E+01
   C -0.191115346E+01  0.608074798E-02  0.250000580E+01
   C  0.191115346E+01  0.608074798E-02  0.250000580E+01
   H -0.401214940E+01  0.626633488E+01  0.249789745E+01
   H  0.401214940E+01  0.626633488E+01  0.249789745E+01
   H -0.720189057E+01 -0.532490890E+00  0.249834604E+01
   H  0.720189057E+01 -0.532490890E+00  0.249834604E+01
  Xx -0.634310839E-16  0.492188411E+03  0.249990750E+01
    11
 # iter = 11250  time[fs]=11.25000
   N -0.139641993E+01 -0.188370502E+01  0.249987635E+01
   N  0.139641993E+01 -0.188370502E+01  0.249987635E+01
   C -0.110537940E+01  0.173154948E+01  0.249997125E+01
   C  0.110537940E+01  0.173154948E+01  0.249997125E+01
   C -0.193246204E+01  0.601223894E-02  0.250000726E+01
   C  0.193246204E+01  0.601223894E-02  0.250000726E+01
   H -0.410182360E+01  0.640260610E+01  0.249781420E+01
   H  0.410182360E+01  0.640260610E+01  0.249781420E+01
   H -0.736409339E+01 -0.549766695E+00  0.249827644E+01
   H  0.736409339E+01 -0.549766695E+00  0.249827644E+01
  Xx -0.649365171E-16  0.503829020E+03  0.249990525E+01
    11
 # iter = 11500  time[fs]=11.50000
   N -0.141800276E+01 -0.190868301E+01  0.249987382E+01
   N  0.141800276E+01 -0.190868301E+01  0.249987382E+01
   C -0.111771049E+01  0.174962065E+01  0.249997300E+01
   C  0.111771049E+01  0.174962065E+01  0.249997300E+01
   C -0.195384462E+01  0.610931072E-02  0.250000849E+01
   C  0.195384462E+01  0.610931072E-02  0.250000849E+01
   H -0.419187451E+01  0.653947836E+01  0.249772888E+01
   H  0.419187451E+01  0.653947836E+01  0.249772888E+01
   H -0.752702060E+01 -0.567174439E+00  0.249820526E+01
   H  0.752702060E+01 -0.567174439E+00  0.249820526E+01
  Xx -0.664419517E-16  0.515469630E+03  0.249990301E+01
    11
 # iter = 11750  time[fs]=11.75000
   N -0.143959170E+01 -0.193383883E+01  0.249987046E+01
   N  0.143959170E+01 -0.193383883E+01  0.249987046E+01
   C -0.113035425E+01  0.176778807E+01  0.249997430E+01
   C  0.113035425E+01  0.176778807E+01  0.249997430E+01
   C -0.197529363E+01  0.628442740E-02  0.250001056E+01
   C  0.197529363E+01  0.628442740E-02  0.250001056E+01
   H -0.428228435E+01  0.667692216E+01  0.249764180E+01
   H  0.428228435E+01  0.667692216E+01  0.249764180E+01
   H -0.769070216E+01 -0.584739797E+00  0.249813402E+01
   H  0.769070216E+01 -0.584739797E+00  0.249813402E+01
  Xx -0.679474073E-16  0.527110240E+03  0.249990076E+01
    11
 # iter = 12000  time[fs]=12.00000
   N -0.146126927E+01 -0.195920084E+01  0.249986716E+01
   N  0.146126927E+01 -0.195920084E+01  0.249986716E+01
   C -0.114317942E+01  0.178603354E+01  0.249997587E+01
   C  0.114317942E+01  0.178603354E+01  0.249997587E+01
   C -0.199695799E+01  0.650839075E-02  0.250001193E+01
   C  0.199695799E+01  0.650839075E-02  0.250001193E+01
   H -0.437306881E+01  0.681491085E+01  0.249755454E+01
   H  0.437306881E+01  0.681491085E+01  0.249755454E+01
   H -0.785506244E+01 -0.602430113E+00  0.249806267E+01
   H  0.785506244E+01 -0.602430113E+00  0.249806267E+01
  Xx -0.694528890E-16  0.538750850E+03  0.249989851E+01
    11
 # iter = 12250  time[fs]=12.25000
   N -0.148304745E+01 -0.198471056E+01  0.249986433E+01
   N  0.148304745E+01 -0.198471056E+01  0.249986433E+01
   C -0.115613784E+01  0.180445073E+01  0.249997804E+01
   C  0.115613784E+01  0.180445073E+01  0.249997804E+01
   C -0.201875059E+01  0.665723374E-02  0.250001326E+01
   C  0.201875059E+01  0.665723374E-02  0.250001326E+01
   H -0.446419375E+01  0.695342756E+01  0.249746723E+01
   H  0.446419375E+01  0.695342756E+01  0.249746723E+01
   H -0.802011461E+01 -0.620267158E+00  0.249799062E+01
   H  0.802011461E+01 -0.620267158E+00  0.249799062E+01
  Xx -0.709583576E-16  0.550391460E+03  0.249989626E+01
    11
 # iter = 12500  time[fs]=12.50000
   N -0.150490094E+01 -0.201031896E+01  0.249986189E+01
   N  0.150490094E+01 -0.201031896E+01  0.249986189E+01
   C -0.116922564E+01  0.182304168E+01  0.249997974E+01
   C  0.116922564E+01  0.182304168E+01  0.249997974E+01
   C -0.204063621E+01  0.673551841E-02  0.250001480E+01
   C  0.204063621E+01  0.673551841E-02  0.250001480E+01
   H -0.455562992E+01  0.709245135E+01  0.249737891E+01
   H  0.455562992E+01  0.709245135E+01  0.249737891E+01
   H -0.818582584E+01 -0.638235561E+00  0.249791725E+01
   H  0.818582584E+01 -0.638235561E+00  0.249791725E+01
  Xx -0.724638314E-16  0.562032069E+03  0.249989402E+01
    11
 # iter = 12750  time[fs]=12.75000
   N -0.152680104E+01 -0.203607234E+01  0.249985976E+01
   N  0.152680104E+01 -0.203607234E+01  0.249985976E+01
   C -0.118235180E+01  0.184168257E+01  0.249998133E+01
   C  0.118235180E+01  0.184168257E+01  0.249998133E+01
   C -0.206263575E+01  0.686875333E-02  0.250001639E+01
   C  0.206263575E+01  0.686875333E-02  0.250001639E+01
   H -0.464737871E+01  0.723197758E+01  0.249729052E+01
   H  0.464737871E+01  0.723197758E+01  0.249729052E+01
   H -0.835217545E+01 -0.656334395E+00  0.249784310E+01
   H  0.835217545E+01 -0.656334395E+00  0.249784310E+01
  Xx -0.739693231E-16  0.573672679E+03  0.249989177E+01
    11
 # iter = 13000  time[fs]=13.00000
   N -0.154873808E+01 -0.206182389E+01  0.249985763E+01
   N  0.154873808E+01 -0.206182389E+01  0.249985763E+01
   C -0.119568491E+01  0.186046595E+01  0.249998198E+01
   C  0.119568491E+01  0.186046595E+01  0.249998198E+01
   C -0.208465640E+01  0.692175393E-02  0.250001839E+01
   C  0.208465640E+01  0.692175393E-02  0.250001839E+01
   H -0.473943185E+01  0.737197390E+01  0.249720143E+01
   H  0.473943185E+01  0.737197390E+01  0.249720143E+01
   H -0.851914573E+01 -0.674565344E+00  0.249776884E+01
   H  0.851914573E+01 -0.674565344E+00  0.249776884E+01
  Xx -0.754748445E-16  0.585313289E+03  0.249988952E+01
    11
 # iter = 13250  time[fs]=13.25000
   N -0.157070757E+01 -0.208760175E+01  0.249985552E+01
   N  0.157070757E+01 -0.208760175E+01  0.249985552E+01
   C -0.120914509E+01  0.187932807E+01  0.249998389E+01
   C  0.120914509E+01  0.187932807E+01  0.249998389E+01
   C -0.210680137E+01  0.685554782E-02  0.250002091E+01
   C  0.210680137E+01  0.685554782E-02  0.250002091E+01
   H -0.483179321E+01  0.751244204E+01  0.249711110E+01
   H  0.483179321E+01  0.751244204E+01  0.249711110E+01
   H -0.868671910E+01 -0.692935799E+00  0.249769480E+01
   H  0.868671910E+01 -0.692935799E+00  0.249769480E+01
  Xx -0.769803985E-16  0.596953899E+03  0.249988728E+01
    11
 # iter = 13500  time[fs]=13.50000
   N -0.159267035E+01 -0.211345183E+01  0.249985308E+01
   N  0.159267035E+01 -0.211345183E+01  0.249985308E+01
   C -0.122262494E+01  0.189830561E+01  0.249998490E+01
   C  0.122262494E+01  0.189830561E+01  0.249998490E+01
   C -0.212901072E+01  0.686540113E-02  0.250002340E+01
   C  0.212901072E+01  0.686540113E-02  0.250002340E+01
   H -0.492442371E+01  0.765335193E+01  0.249701943E+01
   H  0.492442371E+01  0.765335193E+01  0.249701943E+01
   H -0.885488939E+01 -0.711437627E+00  0.249761947E+01
   H  0.885488939E+01 -0.711437627E+00  0.249761947E+01
  Xx -0.784859508E-16  0.608594509E+03  0.249988503E+01
    11
 # iter = 13750  time[fs]=13.75000
   N -0.161463999E+01 -0.213935950E+01  0.249985089E+01
   N  0.161463999E+01 -0.213935950E+01  0.249985089E+01
   C -0.123622189E+01  0.191743724E+01  0.249998643E+01
   C  0.123622189E+01  0.191743724E+01  0.249998643E+01
   C -0.215137070E+01  0.674437320E-02  0.250002543E+01
   C  0.215137070E+01  0.674437320E-02  0.250002543E+01
   H -0.501733462E+01  0.779470276E+01  0.249692641E+01
   H  0.501733462E+01  0.779470276E+01  0.249692641E+01
   H -0.902363666E+01 -0.730071330E+00  0.249754269E+01
   H  0.902363666E+01 -0.730071330E+00  0.249754269E+01
  Xx -0.799915132E-16  0.620235119E+03  0.249988278E+01
    11
 # iter = 14000  time[fs]=14.00000
   N -0.163665576E+01 -0.216541250E+01  0.249984905E+01
   N  0.163665576E+01 -0.216541250E+01  0.249984905E+01
   C -0.124990602E+01  0.193670630E+01  0.249998723E+01
   C  0.124990602E+01  0.193670630E+01  0.249998723E+01
   C -0.217382873E+01  0.657390382E-02  0.250002762E+01
   C  0.217382873E+01  0.657390382E-02  0.250002762E+01
   H -0.511052440E+01  0.793648163E+01  0.249683205E+01
   H  0.511052440E+01  0.793648163E+01  0.249683205E+01
   H -0.919293817E+01 -0.748823763E+00  0.249746486E+01
   H  0.919293817E+01 -0.748823763E+00  0.249746486E+01
  Xx -0.814971100E-16  0.631875728E+03  0.249988054E+01
    11
 # iter = 14250  time[fs]=14.25000
   N -0.165873066E+01 -0.219158683E+01  0.249984673E+01
   N  0.165873066E+01 -0.219158683E+01  0.249984673E+01
   C -0.126367969E+01  0.195609359E+01  0.249998901E+01
   C  0.126367969E+01  0.195609359E+01  0.249998901E+01
   C -0.219645662E+01  0.645508713E-02  0.250003063E+01
   C  0.219645662E+01  0.645508713E-02  0.250003063E+01
   H -0.520396975E+01  0.807867064E+01  0.249673695E+01
   H  0.520396975E+01  0.807867064E+01  0.249673695E+01
   H -0.936277407E+01 -0.767681690E+00  0.249738671E+01
   H  0.936277407E+01 -0.767681690E+00  0.249738671E+01
  Xx -0.830027280E-16  0.643516338E+03  0.249987829E+01
    11
 # iter = 14500  time[fs]=14.50000
   N -0.168087581E+01 -0.221790182E+01  0.249984451E+01
   N  0.168087581E+01 -0.221790182E+01  0.249984451E+01
   C -0.127754129E+01  0.197561201E+01  0.249999047E+01
   C  0.127754129E+01  0.197561201E+01  0.249999047E+01
   C -0.221915426E+01  0.629245989E-02  0.250003354E+01
   C  0.221915426E+01  0.629245989E-02  0.250003354E+01
   H -0.529767759E+01  0.822127776E+01  0.249664070E+01
   H  0.529767759E+01  0.822127776E+01  0.249664070E+01
   H -0.953313043E+01 -0.786655373E+00  0.249730822E+01
   H  0.953313043E+01 -0.786655373E+00  0.249730822E+01
  Xx -0.845083745E-16  0.655156948E+03  0.249987604E+01
    11
 # iter = 14750  time[fs]=14.75000
   N -0.170309711E+01 -0.224439889E+01  0.249984220E+01
   N  0.170309711E+01 -0.224439889E+01  0.249984220E+01
   C -0.129150350E+01  0.199521462E+01  0.249999249E+01
   C  0.129150350E+01  0.199521462E+01  0.249999249E+01
   C -0.224195132E+01  0.614335060E-02  0.250003617E+01
   C  0.224195132E+01  0.614335060E-02  0.250003617E+01
   H -0.539164961E+01  0.836429512E+01  0.249654370E+01
   H  0.539164961E+01  0.836429512E+01  0.249654370E+01
   H -0.970399351E+01 -0.805747576E+00  0.249722967E+01
   H  0.970399351E+01 -0.805747576E+00  0.249722967E+01
  Xx -0.860140061E-16  0.666797558E+03  0.249987379E+01
    11
 # iter = 15000  time[fs]=15.00000
   N -0.172540571E+01 -0.227099953E+01  0.249984066E+01
   N  0.172540571E+01 -0.227099953E+01  0.249984066E+01
   C -0.130558150E+01  0.201495776E+01  0.249999444E+01
   C  0.130558150E+01  0.201495776E+01  0.249999444E+01
   C -0.226483670E+01  0.595737991E-02  0.250003929E+01
   C  0.226483670E+01  0.595737991E-02  0.250003929E+01
   H -0.548587556E+01  0.850771039E+01  0.249644589E+01
   H  0.548587556E+01  0.850771039E+01  0.249644589E+01
   H -0.987534760E+01 -0.824950554E+00  0.249715090E+01
   H  0.987534760E+01 -0.824950554E+00  0.249715090E+01
  Xx -0.875195799E-16  0.678438168E+03  0.249987155E+01
    11
 # iter = 15250  time[fs]=15.25000
   N -0.174781444E+01 -0.229767256E+01  0.249983943E+01
   N  0.174781444E+01 -0.229767256E+01  0.249983943E+01
   C -0.131967079E+01  0.203475856E+01  0.249999578E+01
   C  0.131967079E+01  0.203475856E+01  0.249999578E+01
   C -0.228777970E+01  0.583597754E-02  0.250004230E+01
   C  0.228777970E+01  0.583597754E-02  0.250004230E+01
   H -0.558034957E+01  0.865151552E+01  0.249634727E+01
   H  0.558034957E+01  0.865151552E+01  0.249634727E+01
   H -0.100471821E+02 -0.844258880E+00  0.249707111E+01
   H  0.100471821E+02 -0.844258880E+00  0.249707111E+01
  Xx -0.890251907E-16  0.690078778E+03  0.249986930E+01
    11
 # iter = 15500  time[fs]=15.50000
   N -0.177027848E+01 -0.232441053E+01  0.249983844E+01
   N  0.177027848E+01 -0.232441053E+01  0.249983844E+01
   C -0.133383052E+01  0.205464487E+01  0.249999672E+01
   C  0.133383052E+01  0.205464487E+01  0.249999672E+01
   C -0.231077924E+01  0.572450209E-02  0.250004655E+01
   C  0.231077924E+01  0.572450209E-02  0.250004655E+01
   H -0.567507260E+01  0.879570004E+01  0.249624834E+01
   H  0.567507260E+01  0.879570004E+01  0.249624834E+01
   H -0.102194818E+02 -0.863671457E+00  0.249699076E+01
   H  0.102194818E+02 -0.863671457E+00  0.249699076E+01
  Xx -0.905307910E-16  0.701719387E+03  0.249986705E+01
    11
 # iter = 15750  time[fs]=15.75000
   N -0.179273260E+01 -0.235119701E+01  0.249983743E+01
   N  0.179273260E+01 -0.235119701E+01  0.249983743E+01
   C -0.134801825E+01  0.207461264E+01  0.249999705E+01
   C  0.134801825E+01  0.207461264E+01  0.249999705E+01
   C -0.233387286E+01  0.560280206E-02  0.250005104E+01
   C  0.233387286E+01  0.560280206E-02  0.250005104E+01
   H -0.577004729E+01  0.894026224E+01  0.249614884E+01
   H  0.577004729E+01  0.894026224E+01  0.249614884E+01
   H -0.103922310E+02 -0.883191111E+00  0.249691025E+01
   H  0.103922310E+02 -0.883191111E+00  0.249691025E+01
  Xx -0.920364041E-16  0.713359997E+03  0.249986481E+01
    11
 # iter = 16000  time[fs]=16.00000
   N -0.181515558E+01 -0.237804287E+01  0.249983673E+01
   N  0.181515558E+01 -0.237804287E+01  0.249983673E+01
   C -0.136224874E+01  0.209466618E+01  0.249999731E+01
   C  0.136224874E+01  0.209466618E+01  0.249999731E+01
   C -0.235710675E+01  0.539895346E-02  0.250005566E+01
   C  0.235710675E+01  0.539895346E-02  0.250005566E+01
   H -0.586526625E+01  0.908519533E+01  0.249604894E+01
   H  0.586526625E+01  0.908519533E+01  0.249604894E+01
   H -0.105654161E+02 -0.902817804E+00  0.249682974E+01
   H  0.105654161E+02 -0.902817804E+00  0.249682974E+01
  Xx -0.935420823E-16  0.725000607E+03  0.249986256E+01
    11
 # iter = 16250  time[fs]=16.25000
   N -0.183753949E+01 -0.240494454E+01  0.249983604E+01
   N  0.183753949E+01 -0.240494454E+01  0.249983604E+01
   C -0.137649682E+01  0.211486492E+01  0.249999775E+01
   C  0.137649682E+01  0.211486492E+01  0.249999775E+01
   C -0.238041634E+01  0.517287443E-02  0.250006060E+01
   C  0.238041634E+01  0.517287443E-02  0.250006060E+01
   H -0.596070704E+01  0.923047778E+01  0.249594901E+01
   H  0.596070704E+01  0.923047778E+01  0.249594901E+01
   H -0.107390307E+02 -0.922539560E+00  0.249674921E+01
   H  0.107390307E+02 -0.922539560E+00  0.249674921E+01
  Xx -0.950478361E-16  0.736641217E+03  0.249986031E+01
    11
 # iter = 16500  time[fs]=16.50000
   N -0.185992643E+01 -0.243193211E+01  0.249983504E+01
   N  0.185992643E+01 -0.243193211E+01  0.249983504E+01
   C -0.139080354E+01  0.213515350E+01  0.249999783E+01
   C  0.139080354E+01  0.213515350E+01  0.249999783E+01
   C -0.240381968E+01  0.489420188E-02  0.250006585E+01
   C  0.240381968E+01  0.489420188E-02  0.250006585E+01
   H -0.605636718E+01  0.937610231E+01  0.249584907E+01
   H  0.605636718E+01  0.937610231E+01  0.249584907E+01
   H -0.109130590E+02 -0.942355638E+00  0.249666834E+01
   H  0.109130590E+02 -0.942355638E+00  0.249666834E+01
  Xx -0.965536262E-16  0.748281827E+03  0.249985806E+01
    11
 # iter = 16750  time[fs]=16.75000
   N -0.188231054E+01 -0.245903180E+01  0.249983400E+01
   N  0.188231054E+01 -0.245903180E+01  0.249983400E+01
   C -0.140513355E+01  0.215560311E+01  0.249999836E+01
   C  0.140513355E+01  0.215560311E+01  0.249999836E+01
   C -0.242735366E+01  0.453608213E-02  0.250007089E+01
   C  0.242735366E+01  0.453608213E-02  0.250007089E+01
   H -0.615224695E+01  0.952206621E+01  0.249574914E+01
   H  0.615224695E+01  0.952206621E+01  0.249574914E+01
   H -0.110874897E+02 -0.962270803E+00  0.249658746E+01
   H  0.110874897E+02 -0.962270803E+00  0.249658746E+01
  Xx -0.980594076E-16  0.759922437E+03  0.249985582E+01
    11
 # iter = 17000  time[fs]=17.00000
   N -0.190473883E+01 -0.248624887E+01  0.249983277E+01
   N  0.190473883E+01 -0.248624887E+01  0.249983277E+01
   C -0.141949941E+01  0.217612521E+01  0.249999904E+01
   C  0.141949941E+01  0.217612521E+01  0.249999904E+01
   C -0.245097451E+01  0.409189158E-02  0.250007649E+01
   C  0.245097451E+01  0.409189158E-02  0.250007649E+01
   H -0.624834597E+01  0.966836437E+01  0.249564863E+01
   H  0.624834597E+01  0.966836437E+01  0.249564863E+01
   H -0.112623091E+02 -0.982285157E+00  0.249650658E+01
   H  0.112623091E+02 -0.982285157E+00  0.249650658E+01
  Xx -0.995652224E-16  0.771563046E+03  0.249985357E+01
    11
 # iter = 17250  time[fs]=17.25000
   N -0.192726079E+01 -0.251355575E+01  0.249983198E+01
   N  0.192726079E+01 -0.251355575E+01  0.249983198E+01
   C -0.143394086E+01  0.219678092E+01  0.249999922E+01
   C  0.143394086E+01  0.219678092E+01  0.249999922E+01
   C -0.247467246E+01  0.368250242E-02  0.250008179E+01
   C  0.247467246E+01  0.368250242E-02  0.250008179E+01
   H -0.634464595E+01  0.981497485E+01  0.249554777E+01
   H  0.634464595E+01  0.981497485E+01  0.249554777E+01
   H -0.114375082E+02 -0.100238450E+01  0.249642570E+01
   H  0.114375082E+02 -0.100238450E+01  0.249642570E+01
  Xx -0.101071082E-15  0.783203656E+03  0.249985132E+01
    11
 # iter = 17500  time[fs]=17.50000
   N -0.194988348E+01 -0.254094590E+01  0.249983150E+01
   N  0.194988348E+01 -0.254094590E+01  0.249983150E+01
   C -0.144839897E+01  0.221751026E+01  0.250000008E+01
   C  0.144839897E+01  0.221751026E+01  0.250000008E+01
   C -0.249848697E+01  0.333094096E-02  0.250008672E+01
   C  0.249848697E+01  0.333094096E-02  0.250008672E+01
   H -0.644114063E+01  0.996188767E+01  0.249544692E+01
   H  0.644114063E+01  0.996188767E+01  0.249544692E+01
   H -0.116130760E+02 -0.102256518E+01  0.249634482E+01
   H  0.116130760E+02 -0.102256518E+01  0.249634482E+01
  Xx -0.102577042E-15  0.794844266E+03  0.249984908E+01
    11
 # iter = 17750  time[fs]=17.75000
   N -0.197259055E+01 -0.256840133E+01  0.249983124E+01
   N  0.197259055E+01 -0.256840133E+01  0.249983124E+01
   C -0.146293443E+01  0.223835137E+01  0.250000065E+01
   C  0.146293443E+01  0.223835137E+01  0.250000065E+01
   C -0.252235029E+01  0.293640115E-02  0.250009188E+01
   C  0.252235029E+01  0.293640116E-02  0.250009188E+01
   H -0.653783231E+01  0.101091021E+02  0.249534599E+01
   H  0.653783231E+01  0.101091021E+02  0.249534599E+01
   H -0.117890018E+02 -0.104283251E+01  0.249626393E+01
   H  0.117890018E+02 -0.104283251E+01  0.249626393E+01
  Xx -0.104082939E-15  0.806484876E+03  0.249984683E+01
    11
 # iter = 18000  time[fs]=18.00000
   N -0.199533644E+01 -0.259588456E+01  0.249983099E+01
   N  0.199533644E+01 -0.259588456E+01  0.249983099E+01
   C -0.147754368E+01  0.225928118E+01  0.250000112E+01
   C  0.147754368E+01  0.225928118E+01  0.250000112E+01
   C -0.254631357E+01  0.254085147E-02  0.250009685E+01
   C  0.254631357E+01  0.254085147E-02  0.250009685E+01
   H -0.663471943E+01  0.102566143E+02  0.249524482E+01
   H  0.663471943E+01  0.102566143E+02  0.249524482E+01
   H -0.119652744E+02 -0.106318702E+01  0.249618305E+01
   H  0.119652744E+02 -0.106318702E+01  0.249618305E+01
  Xx -0.105588822E-15  0.818125486E+03  0.249984458E+01
    11
 # iter = 18250  time[fs]=18.25000
   N -0.201810851E+01 -0.262341636E+01  0.249983065E+01
   N  0.201810851E+01 -0.262341636E+01  0.249983065E+01
   C -0.149215098E+01  0.228031080E+01  0.250000168E+01
   C  0.149215098E+01  0.228031080E+01  0.250000168E+01
   C -0.257037047E+01  0.208623048E-02  0.250010287E+01
   C  0.257037047E+01  0.208623048E-02  0.250010287E+01
   H -0.673179588E+01  0.104044171E+02  0.249514359E+01
   H  0.673179588E+01  0.104044171E+02  0.249514359E+01
   H -0.121418858E+02 -0.108362713E+01  0.249610217E+01
   H  0.121418858E+02 -0.108362713E+01  0.249610217E+01
  Xx -0.107094721E-15  0.829766096E+03  0.249984233E+01
    11
 # iter = 18500  time[fs]=18.50000
   N -0.204088675E+01 -0.265102142E+01  0.249983078E+01
   N  0.204088675E+01 -0.265102142E+01  0.249983078E+01
   C -0.150682320E+01  0.230142086E+01  0.250000192E+01
   C  0.150682320E+01  0.230142086E+01  0.250000192E+01
   C -0.259451541E+01  0.165192223E-02  0.250010840E+01
   C  0.259451541E+01  0.165192223E-02  0.250010840E+01
   H -0.682905179E+01  0.105524986E+02  0.249504237E+01
   H  0.682905179E+01  0.105524986E+02  0.249504237E+01
   H -0.123188276E+02 -0.110414599E+01  0.249602129E+01
   H  0.123188276E+02 -0.110414599E+01  0.249602129E+01
  Xx -0.108600571E-15  0.841406705E+03  0.249984009E+01
    11
 # iter = 18750  time[fs]=18.75000
   N -0.206364176E+01 -0.267871886E+01  0.249983136E+01
   N  0.206364176E+01 -0.267871886E+01  0.249983136E+01
   C -0.152149689E+01  0.232261748E+01  0.250000197E+01
   C  0.152149689E+01  0.232261748E+01  0.250000197E+01
   C -0.261871503E+01  0.121014353E-02  0.250011383E+01
   C  0.261871503E+01  0.121014353E-02  0.250011383E+01
   H -0.692647958E+01  0.107008500E+02  0.249494115E+01
   H  0.692647958E+01  0.107008500E+02  0.249494115E+01
   H -0.124960936E+02 -0.112474004E+01  0.249594041E+01
   H  0.124960936E+02 -0.112474004E+01  0.249594041E+01
  Xx -0.110106423E-15  0.853047315E+03  0.249983784E+01
    11
 # iter = 19000  time[fs]=19.00000
   N -0.208635408E+01 -0.270654171E+01  0.249983214E+01
   N  0.208635408E+01 -0.270654171E+01  0.249983214E+01
   C -0.153619776E+01  0.234388963E+01  0.250000236E+01
   C  0.153619776E+01  0.234388963E+01  0.250000236E+01
   C -0.264301022E+01  0.791092141E-03  0.250011843E+01
   C  0.264301022E+01  0.791092141E-03  0.250011843E+01
   H -0.702407886E+01  0.108494668E+02  0.249483993E+01
   H  0.702407886E+01  0.108494668E+02  0.249483993E+01
   H -0.126736731E+02 -0.114540867E+01  0.249585952E+01
   H  0.126736731E+02 -0.114540867E+01  0.249585952E+01
  Xx -0.111612291E-15  0.864687925E+03  0.249983559E+01
    11
 # iter = 19250  time[fs]=19.25000
   N -0.210901749E+01 -0.273448511E+01  0.249983301E+01
   N  0.210901749E+01 -0.273448511E+01  0.249983301E+01
   C -0.155093190E+01  0.236522638E+01  0.250000286E+01
   C  0.155093190E+01  0.236522638E+01  0.250000286E+01
   C -0.266737756E+01  0.374949366E-03  0.250012348E+01
   C  0.266737756E+01  0.374949366E-03  0.250012348E+01
   H -0.712184868E+01  0.109983445E+02  0.249473871E+01
   H  0.712184868E+01  0.109983445E+02  0.249473871E+01
   H -0.128515570E+02 -0.116615179E+01  0.249577864E+01
   H  0.128515570E+02 -0.116615179E+01  0.249577864E+01
  Xx -0.113118248E-15  0.876328535E+03  0.249983335E+01
    11
 # iter = 19500  time[fs]=19.50000
   N -0.213166248E+01 -0.276251085E+01  0.249983447E+01
   N  0.213166248E+01 -0.276251085E+01  0.249983447E+01
   C -0.156574920E+01  0.238664665E+01  0.250000369E+01
   C  0.156574920E+01  0.238664665E+01  0.250000369E+01
   C -0.269180813E+01 -0.325650652E-04  0.250012817E+01
   C  0.269180813E+01 -0.325650653E-04  0.250012817E+01
   H -0.721978375E+01  0.111474754E+02  0.249463749E+01
   H  0.721978375E+01  0.111474754E+02  0.249463749E+01
   H -0.130297373E+02 -0.118696671E+01  0.249569776E+01
   H  0.130297373E+02 -0.118696671E+01  0.249569776E+01
  Xx -0.114624309E-15  0.887969145E+03  0.249983110E+01
    11
 # iter = 19750  time[fs]=19.75000
   N -0.215433456E+01 -0.279062088E+01  0.249983630E+01
   N  0.215433456E+01 -0.279062088E+01  0.249983630E+01
   C -0.158055848E+01  0.240812630E+01  0.250000388E+01
   C  0.158055848E+01  0.240812630E+01  0.250000388E+01
   C -0.271630627E+01 -0.429511898E-03  0.250013284E+01
   C  0.271630627E+01 -0.429511898E-03  0.250013284E+01
   H -0.731787824E+01  0.112968519E+02  0.249453627E+01
   H  0.731787824E+01  0.112968519E+02  0.249453627E+01
   H -0.132082072E+02 -0.120785070E+01  0.249561688E+01
   H  0.132082072E+02 -0.120785070E+01  0.249561688E+01
  Xx -0.116130423E-15  0.899609755E+03  0.249982885E+01
    11
 # iter = 20000  time[fs]=20.00000
   N -0.217706644E+01 -0.281878441E+01  0.249983828E+01
   N  0.217706644E+01 -0.281878441E+01  0.249983828E+01
   C -0.159546388E+01  0.242969984E+01  0.250000496E+01
   C  0.159546388E+01  0.242969984E+01  0.250000496E+01
   C -0.274086782E+01 -0.785852479E-03  0.250013680E+01
   C  0.274086782E+01 -0.785852479E-03  0.250013680E+01
   H -0.741612665E+01  0.114464653E+02  0.249443505E+01
   H  0.741612665E+01  0.114464653E+02  0.249443505E+01
   H -0.133869581E+02 -0.122880010E+01  0.249553600E+01
   H  0.133869581E+02 -0.122880010E+01  0.249553600E+01
  Xx -0.117636668E-15  0.911250364E+03  0.249982660E+01
    11
 # iter = 20250  time[fs]=20.25000
   N -0.219986439E+01 -0.284697847E+01  0.249984012E+01
   N  0.219986439E+01 -0.284697847E+01  0.249984012E+01
   C -0.161041333E+01  0.245133387E+01  0.250000584E+01
   C  0.161041333E+01  0.245133387E+01  0.250000584E+01
   C -0.276548228E+01 -0.112993055E-02  0.250014155E+01
   C  0.276548228E+01 -0.112993055E-02  0.250014155E+01
   H -0.751452483E+01  0.115963098E+02  0.249433382E+01
   H  0.751452483E+01  0.115963098E+02  0.249433382E+01
   H -0.135659838E+02 -0.124981358E+01  0.249545511E+01
   H  0.135659838E+02 -0.124981358E+01  0.249545511E+01
  Xx -0.119143013E-15  0.922890974E+03  0.249982436E+01
    11
 # iter = 20500  time[fs]=20.50000
   N -0.222271332E+01 -0.287521353E+01  0.249984186E+01
   N  0.222271332E+01 -0.287521353E+01  0.249984186E+01
   C -0.162537675E+01  0.247307941E+01  0.250000650E+01
   C  0.162537675E+01  0.247307941E+01  0.250000650E+01
   C -0.279013953E+01 -0.149178976E-02  0.250014530E+01
   C  0.279013953E+01 -0.149178976E-02  0.250014530E+01
   H -0.761306831E+01  0.117463807E+02  0.249423260E+01
   H  0.761306831E+01  0.117463807E+02  0.249423260E+01
   H -0.137452794E+02 -0.127089091E+01  0.249537423E+01
   H  0.137452794E+02 -0.127089091E+01  0.249537423E+01
  Xx -0.120649431E-15  0.934531584E+03  0.249982211E+01
    11
 # iter = 20750  time[fs]=20.75000
   N -0.224561124E+01 -0.290352089E+01  0.249984385E+01
   N  0.224561124E+01 -0.290352089E+01  0.249984385E+01
   C -0.164042975E+01  0.249491214E+01  0.250000697E+01
   C  0.164042975E+01  0.249491214E+01  0.250000697E+01
   C -0.281485752E+01 -0.184863585E-02  0.250014996E+01
   C  0.281485752E+01 -0.184863585E-02  0.250014996E+01
   H -0.771175702E+01  0.118966746E+02  0.249413138E+01
   H  0.771175702E+01  0.118966746E+02  0.249413138E+01
   H -0.139248369E+02 -0.129203271E+01  0.249529335E+01
   H  0.139248369E+02 -0.129203271E+01  0.249529335E+01
  Xx -0.122155892E-15  0.946172194E+03  0.249981986E+01
    11
 # iter = 21000  time[fs]=21.00000
   N -0.226851542E+01 -0.293192472E+01  0.249984653E+01
   N  0.226851542E+01 -0.293192472E+01  0.249984653E+01
   C -0.165550741E+01  0.251686082E+01  0.250000725E+01
   C  0.165550741E+01  0.251686082E+01  0.250000725E+01
   C -0.283962943E+01 -0.226691011E-02  0.250015431E+01
   C  0.283962943E+01 -0.226691011E-02  0.250015431E+01
   H -0.781058929E+01  0.120471882E+02  0.249403016E+01
   H  0.781058929E+01  0.120471882E+02  0.249403016E+01
   H -0.141046494E+02 -0.131323880E+01  0.249521247E+01
   H  0.141046494E+02 -0.131323880E+01  0.249521247E+01
  Xx -0.123662327E-15  0.957812804E+03  0.249981762E+01
    11
 # iter = 21250  time[fs]=21.25000
   N -0.229141147E+01 -0.296044967E+01  0.249984884E+01
   N  0.229141147E+01 -0.296044967E+01  0.249984884E+01
   C -0.167066929E+01  0.253885035E+01  0.250000746E+01
   C  0.167066929E+01  0.253885035E+01  0.250000746E+01
   C -0.286444711E+01 -0.270180560E-02  0.250015919E+01
   C  0.286444711E+01 -0.270180560E-02  0.250015919E+01
   H -0.790956260E+01  0.121979162E+02  0.249392894E+01
   H  0.790956260E+01  0.121979162E+02  0.249392894E+01
   H -0.142847099E+02 -0.133450752E+01  0.249513159E+01
   H  0.142847099E+02 -0.133450752E+01  0.249513159E+01
  Xx -0.125168734E-15  0.969453414E+03  0.249981537E+01
    11
 # iter = 21500  time[fs]=21.50000
   N -0.231426857E+01 -0.298907914E+01  0.249985138E+01
   N  0.231426857E+01 -0.298907914E+01  0.249985138E+01
   C -0.168588994E+01  0.256095004E+01  0.250000791E+01
   C  0.168588994E+01  0.256095004E+01  0.250000791E+01
   C -0.288931672E+01 -0.312373532E-02  0.250016451E+01
   C  0.288931672E+01 -0.312373532E-02  0.250016451E+01
   H -0.800867006E+01  0.123488514E+02  0.249382772E+01
   H  0.800867006E+01  0.123488514E+02  0.249382772E+01
   H -0.144650139E+02 -0.135583504E+01  0.249505070E+01
   H  0.144650139E+02 -0.135583504E+01  0.249505070E+01
  Xx -0.126675065E-15  0.981094023E+03  0.249981312E+01
    11
 # iter = 21750  time[fs]=21.75000
   N -0.233707478E+01 -0.301780133E+01  0.249985400E+01
   N  0.233707478E+01 -0.301780133E+01  0.249985400E+01
   C -0.170113639E+01  0.258309346E+01  0.250000739E+01
   C  0.170113639E+01  0.258309346E+01  0.250000739E+01
   C -0.291423199E+01 -0.354368764E-02  0.250017013E+01
   C  0.291423199E+01 -0.354368764E-02  0.250017013E+01
   H -0.810790667E+01  0.124999875E+02  0.249372650E+01
   H  0.810790667E+01  0.124999875E+02  0.249372650E+01
   H -0.146455564E+02 -0.137721876E+01  0.249496982E+01
   H  0.146455564E+02 -0.137721876E+01  0.249496982E+01
  Xx -0.128181388E-15  0.992734633E+03  0.249981088E+01
    11
 # iter = 22000  time[fs]=22.00000
   N -0.235984937E+01 -0.304659142E+01  0.249985669E+01
   N  0.235984937E+01 -0.304659142E+01  0.249985669E+01
   C -0.171643511E+01  0.260526765E+01  0.250000730E+01
   C  0.171643511E+01  0.260526765E+01  0.250000730E+01
   C -0.293919367E+01 -0.394558903E-02  0.250017603E+01
   C  0.293919367E+01 -0.394558903E-02  0.250017603E+01
   H -0.820726984E+01  0.126513187E+02  0.249362528E+01
   H  0.820726984E+01  0.126513187E+02  0.249362528E+01
   H -0.148263313E+02 -0.139865682E+01  0.249488894E+01
   H  0.148263313E+02 -0.139865682E+01  0.249488894E+01
  Xx -0.129687797E-15  0.100437524E+04  0.249980863E+01
    11
 # iter = 22250  time[fs]=22.25000
   N -0.238261576E+01 -0.307541928E+01  0.249985957E+01
   N  0.238261576E+01 -0.307541928E+01  0.249985957E+01
   C -0.173178101E+01  0.262752543E+01  0.250000686E+01
   C  0.173178101E+01  0.262752543E+01  0.250000686E+01
   C -0.296423070E+01 -0.432261759E-02  0.250018203E+01
   C  0.296423070E+01 -0.432261759E-02  0.250018203E+01
   H -0.830675778E+01  0.128028417E+02  0.249352405E+01
   H  0.830675778E+01  0.128028417E+02  0.249352405E+01
   H -0.150073319E+02 -0.142014804E+01  0.249480806E+01
   H  0.150073319E+02 -0.142014804E+01  0.249480806E+01
  Xx -0.131194370E-15  0.101601585E+04  0.249980638E+01
    11
 # iter = 22500  time[fs]=22.50000
   N -0.240539609E+01 -0.310427871E+01  0.249986237E+01
   N  0.240539609E+01 -0.310427871E+01  0.249986237E+01
   C -0.174714319E+01  0.264977729E+01  0.250000613E+01
   C  0.174714319E+01  0.264977729E+01  0.250000613E+01
   C -0.298933080E+01 -0.472853319E-02  0.250018787E+01
   C  0.298933080E+01 -0.472853319E-02  0.250018787E+01
   H -0.840636953E+01  0.129545539E+02  0.249342283E+01
   H  0.840636953E+01  0.129545539E+02  0.249342283E+01
   H -0.151885524E+02 -0.144169270E+01  0.249472718E+01
   H  0.151885524E+02 -0.144169270E+01  0.249472718E+01
  Xx -0.132701155E-15  0.102765646E+04  0.249980413E+01
    11
 # iter = 22750  time[fs]=22.75000
   N -0.242822339E+01 -0.313319925E+01  0.249986569E+01
   N  0.242822339E+01 -0.313319925E+01  0.249986569E+01
   C -0.176256228E+01  0.267209584E+01  0.250000566E+01
   C  0.176256228E+01  0.267209584E+01  0.250000566E+01
   C -0.301445277E+01 -0.510945222E-02  0.250019409E+01
   C  0.301445277E+01 -0.510945222E-02  0.250019409E+01
   H -0.850610146E+01  0.131064492E+02  0.249332161E+01
   H  0.850610146E+01  0.131064492E+02  0.249332161E+01
   H -0.153699894E+02 -0.146328955E+01  0.249464629E+01
   H  0.153699894E+02 -0.146328955E+01  0.249464629E+01
  Xx -0.134208193E-15  0.103929707E+04  0.249980189E+01
    11
 # iter = 23000  time[fs]=23.00000
   N -0.245111597E+01 -0.316221914E+01  0.249986896E+01
   N  0.245111597E+01 -0.316221914E+01  0.249986896E+01
   C -0.177797080E+01  0.269445716E+01  0.250000462E+01
   C  0.177797080E+01  0.269445716E+01  0.250000462E+01
   C -0.303966074E+01 -0.548585366E-02  0.250020028E+01
   C  0.303966074E+01 -0.548585367E-02  0.250020028E+01
   H -0.860595122E+01  0.132585246E+02  0.249322039E+01
   H  0.860595122E+01  0.132585246E+02  0.249322039E+01
   H -0.155516385E+02 -0.148493797E+01  0.249456541E+01
   H  0.155516385E+02 -0.148493797E+01  0.249456541E+01
  Xx -0.135715325E-15  0.105093768E+04  0.249979964E+01
    11
 # iter = 23250  time[fs]=23.25000
   N -0.247406798E+01 -0.319135752E+01  0.249987262E+01
   N  0.247406798E+01 -0.319135752E+01  0.249987262E+01
   C -0.179340854E+01  0.271687073E+01  0.250000286E+01
   C  0.179340854E+01  0.271687073E+01  0.250000286E+01
   C -0.306489104E+01 -0.587204040E-02  0.250020701E+01
   C  0.306489104E+01 -0.587204040E-02  0.250020701E+01
   H -0.870591644E+01  0.134107775E+02  0.249311917E+01
   H  0.870591644E+01  0.134107775E+02  0.249311917E+01
   H -0.157334944E+02 -0.150663709E+01  0.249448453E+01
   H  0.157334944E+02 -0.150663709E+01  0.249448453E+01
  Xx -0.137222484E-15  0.106257829E+04  0.249979739E+01
    11
 # iter = 23500  time[fs]=23.50000
   N -0.249705953E+01 -0.322062067E+01  0.249987615E+01
   N  0.249705953E+01 -0.322062067E+01  0.249987615E+01
   C -0.180885854E+01  0.273935085E+01  0.250000142E+01
   C  0.180885854E+01  0.273935085E+01  0.250000142E+01
   C -0.309018884E+01 -0.625674342E-02  0.250021393E+01
   C  0.309018884E+01 -0.625674342E-02  0.250021393E+01
   H -0.880599711E+01  0.135632045E+02  0.249301795E+01
   H  0.880599711E+01  0.135632045E+02  0.249301795E+01
   H -0.159155515E+02 -0.152838657E+01  0.249440365E+01
   H  0.159155515E+02 -0.152838657E+01  0.249440365E+01
  Xx -0.138729471E-15  0.107421890E+04  0.249979515E+01
    11
 # iter = 23750  time[fs]=23.75000
   N -0.252005237E+01 -0.324998966E+01  0.249987987E+01
   N  0.252005237E+01 -0.324998966E+01  0.249987987E+01
   C -0.182430703E+01  0.276189589E+01  0.249999938E+01
   C  0.182430703E+01  0.276189589E+01  0.249999938E+01
   C -0.311554586E+01 -0.667739885E-02  0.250022104E+01
   C  0.311554586E+01 -0.667739885E-02  0.250022104E+01
   H -0.890619066E+01  0.137158026E+02  0.249291673E+01
   H  0.890619066E+01  0.137158026E+02  0.249291673E+01
   H -0.160978056E+02 -0.155018585E+01  0.249432277E+01
   H  0.160978056E+02 -0.155018585E+01  0.249432277E+01
  Xx -0.140236202E-15  0.108585951E+04  0.249979290E+01
    11
 # iter = 24000  time[fs]=24.00000
   N -0.254302485E+01 -0.327943769E+01  0.249988364E+01
   N  0.254302485E+01 -0.327943769E+01  0.249988364E+01
   C -0.183980592E+01  0.278445745E+01  0.249999786E+01
   C  0.183980592E+01  0.278445745E+01  0.249999786E+01
   C -0.314092328E+01 -0.711720732E-02  0.250022830E+01
   C  0.314092328E+01 -0.711720733E-02  0.250022830E+01
   H -0.900649507E+01  0.138685690E+02  0.249281551E+01
   H  0.900649507E+01  0.138685690E+02  0.249281551E+01
   H -0.162802528E+02 -0.157203430E+01  0.249424188E+01
   H  0.162802528E+02 -0.157203430E+01  0.249424188E+01
  Xx -0.141742646E-15  0.109750012E+04  0.249979065E+01
    11
 # iter = 24250  time[fs]=24.25000
   N -0.256595934E+01 -0.330892763E+01  0.249988748E+01
   N  0.256595934E+01 -0.330892763E+01  0.249988748E+01
   C -0.185529113E+01  0.280712377E+01  0.249999572E+01
   C  0.185529113E+01  0.280712377E+01  0.249999572E+01
   C -0.316638036E+01 -0.755395542E-02  0.250023561E+01
   C  0.316638036E+01 -0.755395542E-02  0.250023561E+01
   H -0.910690720E+01  0.140214980E+02  0.249271428E+01
   H  0.910690720E+01  0.140214980E+02  0.249271428E+01
   H -0.164628868E+02 -0.159393015E+01  0.249416100E+01
   H  0.164628868E+02 -0.159393015E+01  0.249416100E+01
  Xx -0.143248607E-15  0.110914073E+04  0.249978840E+01
    11
 # iter = 24500  time[fs]=24.50000
   N -0.258883691E+01 -0.333843407E+01  0.249989149E+01
   N  0.258883691E+01 -0.333843407E+01  0.249989149E+01
   C -0.187082462E+01  0.282978279E+01  0.249999365E+01
   C  0.187082462E+01  0.282978279E+01  0.249999365E+01
   C -0.319189535E+01 -0.803629929E-02  0.250024249E+01
   C  0.319189535E+01 -0.803629929E-02  0.250024249E+01
   H -0.920742513E+01  0.141745862E+02  0.249261306E+01
   H  0.920742513E+01  0.141745862E+02  0.249261306E+01
   H -0.166457058E+02 -0.161587245E+01  0.249408012E+01
   H  0.166457058E+02 -0.161587245E+01  0.249408012E+01
  Xx -0.144753996E-15  0.112078134E+04  0.249978616E+01
    11
 # iter = 24750  time[fs]=24.75000
   N -0.261167377E+01 -0.336798150E+01  0.249989564E+01
   N  0.261167377E+01 -0.336798150E+01  0.249989564E+01
   C -0.188635475E+01  0.285253378E+01  0.249999186E+01
   C  0.188635475E+01  0.285253378E+01  0.249999186E+01
   C -0.321743160E+01 -0.852067879E-02  0.250025007E+01
   C  0.321743160E+01 -0.852067879E-02  0.250025007E+01
   H -0.930804556E+01  0.143278303E+02  0.249251184E+01
   H  0.930804556E+01  0.143278303E+02  0.249251184E+01
   H -0.168287050E+02 -0.163785964E+01  0.249399924E+01
   H  0.168287050E+02 -0.163785964E+01  0.249399924E+01
  Xx -0.146258731E-15  0.113242195E+04  0.249978391E+01
    11
 # iter = 25000  time[fs]=25.00000
   N -0.263449709E+01 -0.339758718E+01  0.249989957E+01
   N  0.263449709E+01 -0.339758718E+01  0.249989957E+01
   C -0.190191215E+01  0.287531338E+01  0.249998962E+01
   C  0.190191215E+01  0.287531338E+01  0.249998962E+01
   C -0.324306768E+01 -0.902568305E-02  0.250025729E+01
   C  0.324306768E+01 -0.902568305E-02  0.250025729E+01
   H -0.940876689E+01  0.144812277E+02  0.249241062E+01
   H  0.940876689E+01  0.144812277E+02  0.249241062E+01
   H -0.170118819E+02 -0.165989087E+01  0.249391836E+01
   H  0.170118819E+02 -0.165989087E+01  0.249391836E+01
  Xx -0.147762755E-15  0.114406256E+04  0.249978166E+01
    11
 # iter = 25250  time[fs]=25.25000
   N -0.265734093E+01 -0.342727064E+01  0.249990352E+01
   N  0.265734093E+01 -0.342727064E+01  0.249990352E+01
   C -0.191751717E+01  0.289815352E+01  0.249998790E+01
   C  0.191751717E+01  0.289815352E+01  0.249998790E+01
   C -0.326871659E+01 -0.957271474E-02  0.250026490E+01
   C  0.326871659E+01 -0.957271475E-02  0.250026490E+01
   H -0.950958606E+01  0.146347749E+02  0.249230940E+01
   H  0.950958606E+01  0.146347749E+02  0.249230940E+01
   H -0.171952324E+02 -0.168196508E+01  0.249383747E+01
   H  0.171952324E+02 -0.168196508E+01  0.249383747E+01
  Xx -0.149266267E-15  0.115570317E+04  0.249977942E+01
    11
 # iter = 25500  time[fs]=25.50000
   N -0.268023606E+01 -0.345704292E+01  0.249990779E+01
   N  0.268023606E+01 -0.345704292E+01  0.249990779E+01
   C -0.193312748E+01  0.292105041E+01  0.249998652E+01
   C  0.193312748E+01  0.292105041E+01  0.249998652E+01
   C -0.329441367E+01 -0.101220802E-01  0.250027227E+01
   C  0.329441367E+01 -0.101220802E-01  0.250027227E+01
   H -0.961050293E+01  0.147884688E+02  0.249220818E+01
   H  0.961050293E+01  0.147884688E+02  0.249220818E+01
   H -0.173787516E+02 -0.170408130E+01  0.249375659E+01
   H  0.173787516E+02 -0.170408130E+01  0.249375659E+01
  Xx -0.150769494E-15  0.116734378E+04  0.249977717E+01
    11
 # iter = 25750  time[fs]=25.75000
   N -0.270319225E+01 -0.348690092E+01  0.249991222E+01
   N  0.270319225E+01 -0.348690092E+01  0.249991222E+01
   C -0.194878976E+01  0.294400547E+01  0.249998439E+01
   C  0.194878976E+01  0.294400547E+01  0.249998439E+01
   C -0.332016939E+01 -0.107059883E-01  0.250027940E+01
   C  0.332016939E+01 -0.107059883E-01  0.250027940E+01
   H -0.971151506E+01  0.149423065E+02  0.249210696E+01
   H  0.971151506E+01  0.149423065E+02  0.249210696E+01
   H -0.175624389E+02 -0.172623859E+01  0.249367571E+01
   H  0.175624389E+02 -0.172623859E+01  0.249367571E+01
  Xx -0.152272680E-15  0.117898439E+04  0.249977492E+01
    11
 # iter = 26000  time[fs]=26.00000
   N -0.272620681E+01 -0.351683323E+01  0.249991695E+01
   N  0.272620681E+01 -0.351683323E+01  0.249991695E+01
   C -0.196448021E+01  0.296699416E+01  0.249998229E+01
   C  0.196448021E+01  0.296699416E+01  0.249998229E+01
   C -0.334594004E+01 -0.113146533E-01  0.250028719E+01
   C  0.334594004E+01 -0.113146533E-01  0.250028719E+01
   H -0.981262016E+01  0.150962854E+02  0.249200574E+01
   H  0.981262016E+01  0.150962854E+02  0.249200574E+01
   H -0.177462879E+02 -0.174843623E+01  0.249359483E+01
   H  0.177462879E+02 -0.174843623E+01  0.249359483E+01
  Xx -0.153775992E-15  0.119062500E+04  0.249977267E+01
    11
 # iter = 26250  time[fs]=26.25000
   N -0.274925969E+01 -0.354680947E+01  0.249992135E+01
   N  0.274925969E+01 -0.354680947E+01  0.249992135E+01
   C -0.198017862E+01  0.299006304E+01  0.249997968E+01
   C  0.198017862E+01  0.299006304E+01  0.249997968E+01
   C -0.337177719E+01 -0.119109609E-01  0.250029493E+01
   C  0.337177719E+01 -0.119109609E-01  0.250029493E+01
   H -0.991381495E+01  0.152504023E+02  0.249190451E+01
   H  0.991381495E+01  0.152504023E+02  0.249190451E+01
   H -0.179302966E+02 -0.177067335E+01  0.249351395E+01
   H  0.179302966E+02 -0.177067335E+01  0.249351395E+01
  Xx -0.155279723E-15  0.120226561E+04  0.249977043E+01
    11
 # iter = 26500  time[fs]=26.50000
   N -0.277231825E+01 -0.357680054E+01  0.249992583E+01
   N  0.277231825E+01 -0.357680054E+01  0.249992583E+01
   C -0.199594096E+01  0.301315684E+01  0.249997733E+01
   C  0.199594096E+01  0.301315684E+01  0.249997733E+01
   C -0.339764206E+01 -0.125591273E-01  0.250030248E+01
   C  0.339764206E+01 -0.125591273E-01  0.250030248E+01
   H -0.100150986E+02  0.154046550E+02  0.249180329E+01
   H  0.100150986E+02  0.154046550E+02  0.249180329E+01
   H -0.181144633E+02 -0.179294967E+01  0.249343306E+01
   H  0.181144633E+02 -0.179294967E+01  0.249343306E+01
  Xx -0.156783936E-15  0.121390622E+04  0.249976818E+01
    11
 # iter = 26750  time[fs]=26.75000
   N -0.279535359E+01 -0.360680629E+01  0.249993051E+01
   N  0.279535359E+01 -0.360680629E+01  0.249993051E+01
   C -0.201166582E+01  0.303632049E+01  0.249997503E+01
   C  0.201166582E+01  0.303632049E+01  0.249997503E+01
   C -0.342356287E+01 -0.132071422E-01  0.250031051E+01
   C  0.342356287E+01 -0.132071422E-01  0.250031051E+01
   H -0.101164710E+02  0.155590410E+02  0.249170207E+01
   H  0.101164710E+02  0.155590410E+02  0.249170207E+01
   H -0.182987814E+02 -0.181526446E+01  0.249335218E+01
   H  0.182987814E+02 -0.181526446E+01  0.249335218E+01
  Xx -0.158288893E-15  0.122554683E+04  0.249976593E+01
    11
 # iter = 27000  time[fs]=27.00000
   N -0.281834351E+01 -0.363684529E+01  0.249993524E+01
   N  0.281834351E+01 -0.363684529E+01  0.249993524E+01
   C -0.202744687E+01  0.305951291E+01  0.249997254E+01
   C  0.202744687E+01  0.305951291E+01  0.249997254E+01
   C -0.344955380E+01 -0.138799596E-01  0.250031798E+01
   C  0.344955380E+01 -0.138799596E-01  0.250031798E+01
   H -0.102179304E+02  0.157135579E+02  0.249160085E+01
   H  0.102179304E+02  0.157135579E+02  0.249160085E+01
   H -0.184832505E+02 -0.183761724E+01  0.249327130E+01
   H  0.184832505E+02 -0.183761724E+01  0.249327130E+01
  Xx -0.159794541E-15  0.123718744E+04  0.249976369E+01
    11
 # iter = 27250  time[fs]=27.25000
   N -0.284128421E+01 -0.366694441E+01  0.249994015E+01
   N  0.284128421E+01 -0.366694441E+01  0.249994015E+01
   C -0.204325017E+01  0.308275103E+01  0.249997005E+01
   C  0.204325017E+01  0.308275103E+01  0.249997005E+01
   C -0.347557670E+01 -0.146073896E-01  0.250032552E+01
   C  0.347557670E+01 -0.146073896E-01  0.250032552E+01
   H -0.103194742E+02  0.158682031E+02  0.249149963E+01
   H  0.103194742E+02  0.158682031E+02  0.249149963E+01
   H -0.186678678E+02 -0.186000727E+01  0.249319042E+01
   H  0.186678678E+02 -0.186000727E+01  0.249319042E+01
  Xx -0.161300871E-15  0.124882805E+04  0.249976144E+01
    11
 # iter = 27500  time[fs]=27.50000
   N -0.286419374E+01 -0.369712262E+01  0.249994487E+01
   N  0.286419374E+01 -0.369712262E+01  0.249994487E+01
   C -0.205904773E+01  0.310603167E+01  0.249996787E+01
   C  0.205904773E+01  0.310603167E+01  0.249996787E+01
   C -0.350166340E+01 -0.153179482E-01  0.250033338E+01
   C  0.350166340E+01 -0.153179482E-01  0.250033338E+01
   H -0.104211011E+02  0.160229733E+02  0.249139841E+01
   H  0.104211011E+02  0.160229733E+02  0.249139841E+01
   H -0.188526274E+02 -0.188243338E+01  0.249310954E+01
   H  0.188526274E+02 -0.188243338E+01  0.249310954E+01
  Xx -0.162807724E-15  0.126046866E+04  0.249975919E+01
    11
 # iter = 27750  time[fs]=27.75000
   N -0.288709320E+01 -0.372738597E+01  0.249994952E+01
   N  0.288709320E+01 -0.372738597E+01  0.249994952E+01
   C -0.207490057E+01  0.312936051E+01  0.249996553E+01
   C  0.207490057E+01  0.312936051E+01  0.249996553E+01
   C -0.352779690E+01 -0.160837996E-01  0.250034091E+01
   C  0.352779690E+01 -0.160837996E-01  0.250034091E+01
   H -0.105228079E+02  0.161778678E+02  0.249129719E+01
   H  0.105228079E+02  0.161778678E+02  0.249129719E+01
   H -0.190375291E+02 -0.190489491E+01  0.249302865E+01
   H  0.190375291E+02 -0.190489491E+01  0.249302865E+01
  Xx -0.164315028E-15  0.127210927E+04  0.249975695E+01
    11
 # iter = 28000  time[fs]=28.00000
   N -0.291001113E+01 -0.375771791E+01  0.249995458E+01
   N  0.291001113E+01 -0.375771791E+01  0.249995458E+01
   C -0.209074520E+01  0.315272622E+01  0.249996315E+01
   C  0.209074520E+01  0.315272622E+01  0.249996315E+01
   C -0.355395704E+01 -0.168553694E-01  0.250034882E+01
   C  0.355395704E+01 -0.168553694E-01  0.250034882E+01
   H -0.106245945E+02  0.163328847E+02  0.249119597E+01
   H  0.106245945E+02  0.163328847E+02  0.249119597E+01
   H -0.192225729E+02 -0.192739103E+01  0.249294777E+01
   H  0.192225729E+02 -0.192739103E+01  0.249294777E+01
  Xx -0.165822717E-15  0.128374988E+04  0.249975470E+01
    11
 # iter = 28250  time[fs]=28.25000
   N -0.293297705E+01 -0.378808585E+01  0.249995983E+01
   N  0.293297705E+01 -0.378808585E+01  0.249995983E+01
   C -0.210659773E+01  0.317615972E+01  0.249996091E+01
   C  0.210659773E+01  0.317615972E+01  0.249996091E+01
   C -0.358017654E+01 -0.176343711E-01  0.250035659E+01
   C  0.358017654E+01 -0.176343711E-01  0.250035659E+01
   H -0.107264574E+02  0.164880177E+02  0.249109474E+01
   H  0.107264574E+02  0.164880177E+02  0.249109474E+01
   H -0.194077533E+02 -0.194992091E+01  0.249286689E+01
   H  0.194077533E+02 -0.194992091E+01  0.249286689E+01
  Xx -0.167330473E-15  0.129539049E+04  0.249975245E+01
    11
 # iter = 28500  time[fs]=28.50000
   N -0.295600837E+01 -0.381847551E+01  0.249996492E+01
   N  0.295600837E+01 -0.381847551E+01  0.249996492E+01
   C -0.212250059E+01  0.319963608E+01  0.249995795E+01
   C  0.212250059E+01  0.319963608E+01  0.249995795E+01
   C -0.360641393E+01 -0.184520221E-01  0.250036443E+01
   C  0.360641393E+01 -0.184520221E-01  0.250036443E+01
   H -0.108283958E+02  0.166432661E+02  0.249099352E+01
   H  0.108283958E+02  0.166432661E+02  0.249099352E+01
   H -0.195930669E+02 -0.197248419E+01  0.249278601E+01
   H  0.195930669E+02 -0.197248419E+01  0.249278601E+01
  Xx -0.168837954E-15  0.130703110E+04  0.249975020E+01
    11
 # iter = 28750  time[fs]=28.75000
   N -0.297909200E+01 -0.384887714E+01  0.249996974E+01
   N  0.297909200E+01 -0.384887714E+01  0.249996974E+01
   C -0.213837097E+01  0.322315895E+01  0.249995523E+01
   C  0.213837097E+01  0.322315895E+01  0.249995523E+01
   C -0.363270131E+01 -0.192578899E-01  0.250037258E+01
   C  0.363270131E+01 -0.192578899E-01  0.250037258E+01
   H -0.109304097E+02  0.167986300E+02  0.249089230E+01
   H  0.109304097E+02  0.167986300E+02  0.249089230E+01
   H -0.197785137E+02 -0.199508029E+01  0.249270513E+01
   H  0.197785137E+02 -0.199508029E+01  0.249270513E+01
  Xx -0.170344760E-15  0.131867171E+04  0.249974796E+01
    11
 # iter = 29000  time[fs]=29.00000
   N -0.300219740E+01 -0.387929551E+01  0.249997464E+01
   N  0.300219740E+01 -0.387929551E+01  0.249997464E+01
   C -0.215431287E+01  0.324672577E+01  0.249995280E+01
   C  0.215431287E+01  0.324672577E+01  0.249995280E+01
   C -0.365902566E+01 -0.200862073E-01  0.250038064E+01
   C  0.365902566E+01 -0.200862073E-01  0.250038064E+01
   H -0.110324991E+02  0.169541093E+02  0.249079108E+01
   H  0.110324991E+02  0.169541093E+02  0.249079108E+01
   H -0.199640915E+02 -0.201770885E+01  0.249262424E+01
   H  0.199640915E+02 -0.201770885E+01  0.249262424E+01
  Xx -0.171850730E-15  0.133031232E+04  0.249974571E+01
    11
 # iter = 29250  time[fs]=29.25000
   N -0.302530466E+01 -0.390975735E+01  0.249997964E+01
   N  0.302530466E+01 -0.390975735E+01  0.249997964E+01
   C -0.217026323E+01  0.327033969E+01  0.249994942E+01
   C  0.217026323E+01  0.327033969E+01  0.249994942E+01
   C -0.368539069E+01 -0.209535179E-01  0.250038887E+01
   C  0.368539069E+01 -0.209535179E-01  0.250038887E+01
   H -0.111346631E+02  0.171096998E+02  0.249068986E+01
   H  0.111346631E+02  0.171096998E+02  0.249068986E+01
   H -0.201497939E+02 -0.204036960E+01  0.249254336E+01
   H  0.201497939E+02 -0.204036960E+01  0.249254336E+01
  Xx -0.173356101E-15  0.134195293E+04  0.249974346E+01
    11
 # iter = 29500  time[fs]=29.50000
   N -0.304838970E+01 -0.394029363E+01  0.249998463E+01
   N  0.304838970E+01 -0.394029363E+01  0.249998463E+01
   C -0.218623439E+01  0.329398070E+01  0.249994716E+01
   C  0.218623439E+01  0.329398070E+01  0.249994716E+01
   C -0.371180954E+01 -0.218132479E-01  0.250039714E+01
   C  0.371180954E+01 -0.218132479E-01  0.250039714E+01
   H -0.112368984E+02  0.172653968E+02  0.249058864E+01
   H  0.112368984E+02  0.172653968E+02  0.249058864E+01
   H -0.203356208E+02 -0.206306204E+01  0.249246248E+01
   H  0.203356208E+02 -0.206306204E+01  0.249246248E+01
  Xx -0.174861042E-15  0.135359354E+04  0.249974122E+01
    11
 # iter = 29750  time[fs]=29.75000
   N -0.307142429E+01 -0.397090923E+01  0.249998949E+01
   N  0.307142429E+01 -0.397090923E+01  0.249998949E+01
   C -0.220227334E+01  0.331767591E+01  0.249994439E+01
   C  0.220227334E+01  0.331767591E+01  0.249994439E+01
   C -0.373827047E+01 -0.227267499E-01  0.250040538E+01
   C  0.373827047E+01 -0.227267499E-01  0.250040538E+01
   H -0.113392048E+02  0.174212004E+02  0.249048742E+01
   H  0.113392048E+02  0.174212004E+02  0.249048742E+01
   H -0.205215719E+02 -0.208578543E+01  0.249238160E+01
   H  0.205215719E+02 -0.208578543E+01  0.249238160E+01
  Xx -0.176365921E-15  0.136523415E+04  0.249973897E+01
    11
 # iter = 30000  time[fs]=30.00000
   N -0.309440205E+01 -0.400158574E+01  0.249999432E+01
   N  0.309440205E+01 -0.400158574E+01  0.249999432E+01
   C -0.221830371E+01  0.334138717E+01  0.249994075E+01
   C  0.221830371E+01  0.334138717E+01  0.249994075E+01
   C -0.376476424E+01 -0.236258923E-01  0.250041366E+01
   C  0.376476424E+01 -0.236258923E-01  0.250041366E+01
   H -0.114415805E+02  0.175771107E+02  0.249038620E+01
   H  0.114415805E+02  0.175771107E+02  0.249038620E+01
   H -0.207076471E+02 -0.210853891E+01  0.249230072E+01
   H  0.207076471E+02 -0.210853891E+01  0.249230072E+01
  Xx -0.177870805E-15  0.137687476E+04  0.249973672E+01
    11
 # iter = 30250  time[fs]=30.25000
   N -0.311734210E+01 -0.403230486E+01  0.249999918E+01
   N  0.311734210E+01 -0.403230486E+01  0.249999918E+01
   C -0.223437358E+01  0.336514203E+01  0.249993830E+01
   C  0.223437358E+01  0.336514203E+01  0.249993830E+01
   C -0.379130409E+01 -0.245540505E-01  0.250042186E+01
   C  0.379130409E+01 -0.245540505E-01  0.250042186E+01
   H -0.115440229E+02  0.177331236E+02  0.249028497E+01
   H  0.115440229E+02  0.177331236E+02  0.249028497E+01
   H -0.208938401E+02 -0.213132163E+01  0.249221983E+01
   H  0.208938401E+02 -0.213132163E+01  0.249221983E+01
  Xx -0.179375728E-15  0.138851537E+04  0.249973447E+01
    11
 # iter = 30500  time[fs]=30.50000
   N -0.314027808E+01 -0.406304761E+01  0.250000416E+01
   N  0.314027808E+01 -0.406304761E+01  0.250000416E+01
   C -0.225046474E+01  0.338895382E+01  0.249993505E+01
   C  0.225046474E+01  0.338895382E+01  0.249993505E+01
   C -0.381786408E+01 -0.254832141E-01  0.250042977E+01
   C  0.381786408E+01 -0.254832141E-01  0.250042977E+01
   H -0.116465318E+02  0.178892342E+02  0.249018375E+01
   H  0.116465318E+02  0.178892342E+02  0.249018375E+01
   H -0.210801485E+02 -0.215413279E+01  0.249213895E+01
   H  0.210801485E+02 -0.215413279E+01  0.249213895E+01
  Xx -0.180880731E-15  0.140015598E+04  0.249973223E+01
    11
 # iter = 30750  time[fs]=30.75000
   N -0.316323856E+01 -0.409379819E+01  0.250000909E+01
   N  0.316323856E+01 -0.409379819E+01  0.250000909E+01
   C -0.226654053E+01  0.341277976E+01  0.249993168E+01
   C  0.226654053E+01  0.341277976E+01  0.249993168E+01
   C -0.384445748E+01 -0.264071559E-01  0.250043766E+01
   C  0.384445748E+01 -0.264071559E-01  0.250043766E+01
   H -0.117491056E+02  0.180454425E+02  0.249008253E+01
   H  0.117491056E+02  0.180454425E+02  0.249008253E+01
   H -0.212665724E+02 -0.217697172E+01  0.249205807E+01
   H  0.212665724E+02 -0.217697172E+01  0.249205807E+01
  Xx -0.182385547E-15  0.141179659E+04  0.249972998E+01
    11
 # iter = 31000  time[fs]=31.00000
   N -0.318624457E+01 -0.412456239E+01  0.250001389E+01
   N  0.318624457E+01 -0.412456239E+01  0.250001389E+01
   C -0.228266092E+01  0.343667635E+01  0.249992954E+01
   C  0.228266092E+01  0.343667635E+01  0.249992954E+01
   C -0.387108694E+01 -0.273674892E-01  0.250044543E+01
   C  0.387108694E+01 -0.273674893E-01  0.250044543E+01
   H -0.118517416E+02  0.182017485E+02  0.248998131E+01
   H  0.118517416E+02  0.182017485E+02  0.248998131E+01
   H -0.214531117E+02 -0.219983840E+01  0.249197719E+01
   H  0.214531117E+02 -0.219983840E+01  0.249197719E+01
  Xx -0.183890208E-15  0.142343720E+04  0.249972773E+01
    11
 # iter = 31250  time[fs]=31.25000
   N -0.320930731E+01 -0.415536659E+01  0.250001872E+01
   N  0.320930731E+01 -0.415536659E+01  0.250001872E+01
   C -0.229877425E+01  0.346061281E+01  0.249992567E+01
   C  0.229877425E+01  0.346061281E+01  0.249992567E+01
   C -0.389775089E+01 -0.283291028E-01  0.250045311E+01
   C  0.389775089E+01 -0.283291028E-01  0.250045311E+01
   H -0.119544397E+02  0.183581522E+02  0.248988009E+01
   H  0.119544397E+02  0.183581522E+02  0.248988009E+01
   H -0.216397631E+02 -0.222273284E+01  0.249189631E+01
   H  0.216397631E+02 -0.222273284E+01  0.249189631E+01
  Xx -0.185394763E-15  0.143507781E+04  0.249972549E+01
    11
 # iter = 31500  time[fs]=31.50000
   N -0.323242039E+01 -0.418624012E+01  0.250002356E+01
   N  0.323242039E+01 -0.418624012E+01  0.250002356E+01
   C -0.231489376E+01  0.348458320E+01  0.249992277E+01
   C  0.231489376E+01  0.348458320E+01  0.249992277E+01
   C -0.392446107E+01 -0.293006439E-01  0.250046108E+01
   C  0.392446107E+01 -0.293006439E-01  0.250046108E+01
   H -0.120572000E+02  0.185146536E+02  0.248977887E+01
   H  0.120572000E+02  0.185146536E+02  0.248977887E+01
   H -0.218265211E+02 -0.224565496E+01  0.249181543E+01
   H  0.218265211E+02 -0.224565496E+01  0.249181543E+01
  Xx -0.186899018E-15  0.144671842E+04  0.249972324E+01
    11
 # iter = 31750  time[fs]=31.75000
   N -0.325555912E+01 -0.421718876E+01  0.250002833E+01
   N  0.325555912E+01 -0.421718876E+01  0.250002833E+01
   C -0.233105153E+01  0.350862343E+01  0.249992022E+01
   C  0.233105153E+01  0.350862343E+01  0.249992022E+01
   C -0.395121010E+01 -0.303118793E-01  0.250046880E+01
   C  0.395121010E+01 -0.303118793E-01  0.250046880E+01
   H -0.121600225E+02  0.186712498E+02  0.248967765E+01
   H  0.121600225E+02  0.186712498E+02  0.248967765E+01
   H -0.220133857E+02 -0.226860409E+01  0.249173454E+01
   H  0.220133857E+02 -0.226860409E+01  0.249173454E+01
  Xx -0.188403100E-15  0.145835903E+04  0.249972099E+01
    11
 # iter = 32000  time[fs]=32.00000
   N -0.327869456E+01 -0.424819625E+01  0.250003300E+01
   N  0.327869456E+01 -0.424819625E+01  0.250003300E+01
   C -0.234719470E+01  0.353267302E+01  0.249991644E+01
   C  0.234719470E+01  0.353267302E+01  0.249991644E+01
   C -0.397799573E+01 -0.313192908E-01  0.250047642E+01
   C  0.397799573E+01 -0.313192908E-01  0.250047642E+01
   H -0.122629072E+02  0.188279349E+02  0.248957643E+01
   H  0.122629072E+02  0.188279349E+02  0.248957643E+01
   H -0.222003569E+02 -0.229157988E+01  0.249165366E+01
   H  0.222003569E+02 -0.229157988E+01  0.249165366E+01
  Xx -0.189906870E-15  0.146999964E+04  0.249971874E+01
    11
 # iter = 32250  time[fs]=32.25000
   N -0.330179418E+01 -0.427924369E+01  0.250003756E+01
   N  0.330179418E+01 -0.427924369E+01  0.250003756E+01
   C -0.236338637E+01  0.355675724E+01  0.249991467E+01
   C  0.236338637E+01  0.355675724E+01  0.249991467E+01
   C -0.400482811E+01 -0.323529925E-01  0.250048405E+01
   C  0.400482811E+01 -0.323529925E-01  0.250048405E+01
   H -0.123658535E+02  0.189847088E+02  0.248947520E+01
   H  0.123658535E+02  0.189847088E+02  0.248947520E+01
   H -0.223874347E+02 -0.231458224E+01  0.249157278E+01
   H  0.223874347E+02 -0.231458224E+01  0.249157278E+01
  Xx -0.191410329E-15  0.148164025E+04  0.249971650E+01
    11
 # iter = 32500  time[fs]=32.50000
   N -0.332483662E+01 -0.431030750E+01  0.250004187E+01
   N  0.332483662E+01 -0.431030750E+01  0.250004187E+01
   C -0.237958759E+01  0.358089993E+01  0.249991157E+01
   C  0.237958759E+01  0.358089993E+01  0.249991157E+01
   C -0.403168166E+01 -0.333832197E-01  0.250049120E+01
   C  0.403168166E+01 -0.333832197E-01  0.250049120E+01
   H -0.124688580E+02  0.191415715E+02  0.248937398E+01
   H  0.124688580E+02  0.191415715E+02  0.248937398E+01
   H -0.225746163E+02 -0.233761036E+01  0.249149190E+01
   H  0.225746163E+02 -0.233761036E+01  0.249149190E+01
  Xx -0.192913601E-15  0.149328086E+04  0.249971425E+01
    11
 # iter = 32750  time[fs]=32.75000
   N -0.334783090E+01 -0.434136890E+01  0.250004628E+01
   N  0.334783090E+01 -0.434136890E+01  0.250004628E+01
   C -0.239579823E+01  0.360503814E+01  0.249990827E+01
   C  0.239579823E+01  0.360503814E+01  0.249990827E+01
   C -0.405857733E+01 -0.344421487E-01  0.250049856E+01
   C  0.405857733E+01 -0.344421487E-01  0.250049856E+01
   H -0.125719203E+02  0.192985230E+02  0.248927276E+01
   H  0.125719203E+02  0.192985230E+02  0.248927276E+01
   H -0.227618957E+02 -0.236066376E+01  0.249141102E+01
   H  0.227618957E+02 -0.236066376E+01  0.249141102E+01
  Xx -0.194416530E-15  0.150492147E+04  0.249971200E+01
    11
 # iter = 33000  time[fs]=33.00000
   N -0.337079607E+01 -0.437243551E+01  0.250005105E+01
   N  0.337079607E+01 -0.437243551E+01  0.250005105E+01
   C -0.241204711E+01  0.362925189E+01  0.249990677E+01
   C  0.241204711E+01  0.362925189E+01  0.249990677E+01
   C -0.408549711E+01 -0.355063960E-01  0.250050616E+01
   C  0.408549711E+01 -0.355063960E-01  0.250050616E+01
   H -0.126750404E+02  0.194555634E+02  0.248917154E+01
   H  0.126750404E+02  0.194555634E+02  0.248917154E+01
   H -0.229492729E+02 -0.238374164E+01  0.249133013E+01
   H  0.229492729E+02 -0.238374164E+01  0.249133013E+01
  Xx -0.195919192E-15  0.151656208E+04  0.249970976E+01
    11
 # iter = 33250  time[fs]=33.25000
   N -0.339375242E+01 -0.440353780E+01  0.250005563E+01
   N  0.339375242E+01 -0.440353780E+01  0.250005563E+01
   C -0.242829008E+01  0.365348269E+01  0.249990311E+01
   C  0.242829008E+01  0.365348269E+01  0.249990311E+01
   C -0.411244640E+01 -0.365700868E-01  0.250051344E+01
   C  0.411244640E+01 -0.365700868E-01  0.250051344E+01
   H -0.127782158E+02  0.196126885E+02  0.248907032E+01
   H  0.127782158E+02  0.196126885E+02  0.248907032E+01
   H -0.231367477E+02 -0.240684371E+01  0.249124925E+01
   H  0.231367477E+02 -0.240684371E+01  0.249124925E+01
  Xx -0.197421653E-15  0.152820269E+04  0.249970751E+01
    11
 # iter = 33500  time[fs]=33.50000
   N -0.341673385E+01 -0.443470147E+01  0.250005986E+01
   N  0.341673385E+01 -0.443470147E+01  0.250005986E+01
   C -0.244457552E+01  0.367775020E+01  0.249990066E+01
   C  0.244457552E+01  0.367775020E+01  0.249990066E+01
   C -0.413943385E+01 -0.376574766E-01  0.250052098E+01
   C  0.413943385E+01 -0.376574766E-01  0.250052098E+01
   H -0.128814444E+02  0.197698935E+02  0.248896910E+01
   H  0.128814444E+02  0.197698935E+02  0.248896910E+01
   H -0.233243203E+02 -0.242996955E+01  0.249116837E+01
   H  0.233243203E+02 -0.242996955E+01  0.249116837E+01
  Xx -0.198923857E-15  0.153984330E+04  0.249970526E+01
    11
 # iter = 33750  time[fs]=33.75000
   N -0.343976906E+01 -0.446593738E+01  0.250006392E+01
   N  0.343976906E+01 -0.446593738E+01  0.250006392E+01
   C -0.246085927E+01  0.370209393E+01  0.249989829E+01
   C  0.246085927E+01  0.370209393E+01  0.249989829E+01
   C -0.416645077E+01 -0.387410389E-01  0.250052801E+01
   C  0.416645077E+01 -0.387410389E-01  0.250052801E+01
   H -0.129847264E+02  0.199271785E+02  0.248886788E+01
   H  0.129847264E+02  0.199271785E+02  0.248886788E+01
   H -0.235119905E+02 -0.245311874E+01  0.249108749E+01
   H  0.235119905E+02 -0.245311874E+01  0.249108749E+01
  Xx -0.200426112E-15  0.155148391E+04  0.249970301E+01
    11
 # iter = 34000  time[fs]=34.00000
   N -0.346286286E+01 -0.449723527E+01  0.250006802E+01
   N  0.346286286E+01 -0.449723527E+01  0.250006802E+01
   C -0.247715870E+01  0.372643438E+01  0.249989394E+01
   C  0.247715870E+01  0.372643438E+01  0.249989394E+01
   C -0.419351000E+01 -0.398366808E-01  0.250053494E+01
   C  0.419351000E+01 -0.398366808E-01  0.250053494E+01
   H -0.130880617E+02  0.200845434E+02  0.248876666E+01
   H  0.130880617E+02  0.200845434E+02  0.248876666E+01
   H -0.236997567E+02 -0.247629125E+01  0.249100661E+01
   H  0.236997567E+02 -0.247629125E+01  0.249100661E+01
  Xx -0.201928333E-15  0.156312451E+04  0.249970077E+01
    11
 # iter = 34250  time[fs]=34.25000
   N -0.348600082E+01 -0.452856469E+01  0.250007190E+01
   N  0.348600082E+01 -0.452856469E+01  0.250007190E+01
   C -0.249348331E+01  0.375084951E+01  0.249989225E+01
   C  0.249348331E+01  0.375084951E+01  0.249989225E+01
   C -0.422061197E+01 -0.409532170E-01  0.250054227E+01
   C  0.422061197E+01 -0.409532170E-01  0.250054227E+01
   H -0.131914503E+02  0.202419882E+02  0.248866543E+01
   H  0.131914503E+02  0.202419882E+02  0.248866543E+01
   H -0.238876123E+02 -0.249948707E+01  0.249092572E+01
   H  0.238876123E+02 -0.249948707E+01  0.249092572E+01
  Xx -0.203430654E-15  0.157476512E+04  0.249969852E+01
    11
 # iter = 34500  time[fs]=34.50000
   N -0.350915783E+01 -0.455989938E+01  0.250007556E+01
   N  0.350915783E+01 -0.455989938E+01  0.250007556E+01
   C -0.250980559E+01  0.377529650E+01  0.249988891E+01
   C  0.250980559E+01  0.377529650E+01  0.249988891E+01
   C -0.424773845E+01 -0.420734515E-01  0.250054915E+01
   C  0.424773845E+01 -0.420734515E-01  0.250054915E+01
   H -0.132948921E+02  0.203995130E+02  0.248856421E+01
   H  0.132948921E+02  0.203995130E+02  0.248856421E+01
   H -0.240755566E+02 -0.252270582E+01  0.249084484E+01
   H  0.240755566E+02 -0.252270582E+01  0.249084484E+01
  Xx -0.204933226E-15  0.158640573E+04  0.249969627E+01
    11
 # iter = 34750  time[fs]=34.75000
   N -0.353230413E+01 -0.459122857E+01  0.250007913E+01
   N  0.353230413E+01 -0.459122857E+01  0.250007913E+01
   C -0.252616389E+01  0.379975384E+01  0.249988563E+01
   C  0.252616389E+01  0.379975384E+01  0.249988563E+01
   C -0.427491027E+01 -0.432169326E-01  0.250055607E+01
   C  0.427491027E+01 -0.432169326E-01  0.250055607E+01
   H -0.133983867E+02  0.205571177E+02  0.248846299E+01
   H  0.133983867E+02  0.205571177E+02  0.248846299E+01
   H -0.242635898E+02 -0.254594702E+01  0.249076396E+01
   H  0.242635898E+02 -0.254594702E+01  0.249076396E+01
  Xx -0.206435806E-15  0.159804634E+04  0.249969403E+01
    11
 # iter = 35000  time[fs]=35.00000
   N -0.355541285E+01 -0.462255443E+01  0.250008263E+01
   N  0.355541285E+01 -0.462255443E+01  0.250008263E+01
   C -0.254251273E+01  0.382428801E+01  0.249988422E+01
   C  0.254251273E+01  0.382428801E+01  0.249988422E+01
   C -0.430210972E+01 -0.443693803E-01  0.250056268E+01
   C  0.430210972E+01 -0.443693803E-01  0.250056268E+01
   H -0.135019308E+02  0.207148023E+02  0.248836177E+01
   H  0.135019308E+02  0.207148023E+02  0.248836177E+01
   H -0.244517119E+02 -0.256921044E+01  0.249068308E+01
   H  0.244517119E+02 -0.256921044E+01  0.249068308E+01
  Xx -0.207938538E-15  0.160968695E+04  0.249969178E+01
    11
 # iter = 35250  time[fs]=35.25000
   N -0.357847338E+01 -0.465389692E+01  0.250008635E+01
   N  0.357847338E+01 -0.465389692E+01  0.250008635E+01
   C -0.255888718E+01  0.384881429E+01  0.249988000E+01
   C  0.255888718E+01  0.384881429E+01  0.249988000E+01
   C -0.432933485E+01 -0.455446596E-01  0.250056893E+01
   C  0.432933485E+01 -0.455446596E-01  0.250056893E+01
   H -0.136055237E+02  0.208725636E+02  0.248826055E+01
   H  0.136055237E+02  0.208725636E+02  0.248826055E+01
   H -0.246399227E+02 -0.259249603E+01  0.249060220E+01
   H  0.246399227E+02 -0.259249603E+01  0.249060220E+01
  Xx -0.209441246E-15  0.162132756E+04  0.249968953E+01
    11
 # iter = 35500  time[fs]=35.50000
   N -0.360148475E+01 -0.468529354E+01  0.250009013E+01
   N  0.360148475E+01 -0.468529354E+01  0.250009013E+01
   C -0.257528652E+01  0.387338841E+01  0.249987827E+01
   C  0.257528652E+01  0.387338841E+01  0.249987827E+01
   C -0.435658909E+01 -0.467205232E-01  0.250057549E+01
   C  0.435658909E+01 -0.467205232E-01  0.250057549E+01
   H -0.137091655E+02  0.210303959E+02  0.248815933E+01
   H  0.137091655E+02  0.210303959E+02  0.248815933E+01
   H -0.248282224E+02 -0.261580308E+01  0.249052131E+01
   H  0.248282224E+02 -0.261580308E+01  0.249052131E+01
  Xx -0.210943875E-15  0.163296817E+04  0.249968729E+01
    11
 # iter = 35750  time[fs]=35.75000
   N -0.362446295E+01 -0.471676577E+01  0.250009343E+01
   N  0.362446295E+01 -0.471676577E+01  0.250009343E+01
   C -0.259166047E+01  0.389800813E+01  0.249987567E+01
   C  0.259166047E+01  0.389800813E+01  0.249987567E+01
   C -0.438385991E+01 -0.479174404E-01  0.250058155E+01
   C  0.438385991E+01 -0.479174404E-01  0.250058155E+01
   H -0.138128561E+02  0.211882993E+02  0.248805811E+01
   H  0.138128561E+02  0.211882993E+02  0.248805811E+01
   H -0.250166066E+02 -0.263913122E+01  0.249044043E+01
   H  0.250166066E+02 -0.263913122E+01  0.249044043E+01
  Xx -0.212446435E-15  0.164460878E+04  0.249968504E+01
    11
 # iter = 36000  time[fs]=36.00000
   N -0.364744490E+01 -0.474829122E+01  0.250009653E+01
   N  0.364744490E+01 -0.474829122E+01  0.250009653E+01
   C -0.260808375E+01  0.392263918E+01  0.249987156E+01
   C  0.260808375E+01  0.392263918E+01  0.249987156E+01
   C -0.441117168E+01 -0.491204399E-01  0.250058777E+01
   C  0.441117168E+01 -0.491204400E-01  0.250058777E+01
   H -0.139165956E+02  0.213462737E+02  0.248795689E+01
   H  0.139165956E+02  0.213462737E+02  0.248795689E+01
   H -0.252050708E+02 -0.266248045E+01  0.249035955E+01
   H  0.252050708E+02 -0.266248045E+01  0.249035955E+01
  Xx -0.213948674E-15  0.165624939E+04  0.249968279E+01
    11
 # iter = 36250  time[fs]=36.25000
   N -0.367046266E+01 -0.477983676E+01  0.250009989E+01
   N  0.367046266E+01 -0.477983676E+01  0.250009989E+01
   C -0.262449803E+01  0.394733532E+01  0.249987090E+01
   C  0.262449803E+01  0.394733532E+01  0.249987090E+01
   C -0.443850349E+01 -0.503371095E-01  0.250059421E+01
   C  0.443850349E+01 -0.503371095E-01  0.250059421E+01
   H -0.140203839E+02  0.215043192E+02  0.248785566E+01
   H  0.140203839E+02  0.215043192E+02  0.248785566E+01
   H -0.253936150E+02 -0.268585035E+01  0.249027867E+01
   H  0.253936150E+02 -0.268585035E+01  0.249027867E+01
  Xx -0.215450741E-15  0.166789000E+04  0.249968054E+01
    11
 # iter = 36500  time[fs]=36.50000
   N -0.369352806E+01 -0.481138393E+01  0.250010319E+01
   N  0.369352806E+01 -0.481138393E+01  0.250010319E+01
   C -0.264092014E+01  0.397205342E+01  0.249986692E+01
   C  0.264092014E+01  0.397205342E+01  0.249986692E+01
   C -0.446587594E+01 -0.515741136E-01  0.250060009E+01
   C  0.446587594E+01 -0.515741136E-01  0.250060009E+01
   H -0.141242191E+02  0.216624358E+02  0.248775444E+01
   H  0.141242191E+02  0.216624358E+02  0.248775444E+01
   H -0.255822391E+02 -0.270924024E+01  0.249019779E+01
   H  0.255822391E+02 -0.270924024E+01  0.249019779E+01
  Xx -0.216952516E-15  0.167953061E+04  0.249967830E+01
    11
 # iter = 36750  time[fs]=36.75000
   N -0.371664210E+01 -0.484292217E+01  0.250010606E+01
   N  0.371664210E+01 -0.484292217E+01  0.250010606E+01
   C -0.265739459E+01  0.399681405E+01  0.249986400E+01
   C  0.265739459E+01  0.399681405E+01  0.249986400E+01
   C -0.449328677E+01 -0.528055942E-01  0.250060615E+01
   C  0.449328677E+01 -0.528055942E-01  0.250060615E+01
   H -0.142280988E+02  0.218206234E+02  0.248765322E+01
   H  0.142280988E+02  0.218206234E+02  0.248765322E+01
   H -0.257709431E+02 -0.273265012E+01  0.249011690E+01
   H  0.257709431E+02 -0.273265012E+01  0.249011690E+01
  Xx -0.218454075E-15  0.169117122E+04  0.249967605E+01
    11
 # iter = 37000  time[fs]=37.00000
   N -0.373980011E+01 -0.487445773E+01  0.250010860E+01
   N  0.373980011E+01 -0.487445773E+01  0.250010860E+01
   C -0.267384221E+01  0.402161949E+01  0.249986284E+01
   C  0.267384221E+01  0.402161949E+01  0.249986284E+01
   C -0.452071892E+01 -0.540631661E-01  0.250061209E+01
   C  0.452071892E+01 -0.540631661E-01  0.250061209E+01
   H -0.143320228E+02  0.219788820E+02  0.248755200E+01
   H  0.143320228E+02  0.219788820E+02  0.248755200E+01
   H -0.259597271E+02 -0.275607996E+01  0.249003602E+01
   H  0.259597271E+02 -0.275607996E+01  0.249003602E+01
  Xx -0.219955528E-15  0.170281183E+04  0.249967380E+01
    11
 # iter = 37250  time[fs]=37.25000
   N -0.376297614E+01 -0.490601875E+01  0.250011083E+01
   N  0.376297614E+01 -0.490601875E+01  0.250011083E+01
   C -0.269034037E+01  0.404644589E+01  0.249985782E+01
   C  0.269034037E+01  0.404644589E+01  0.249985782E+01
   C -0.454818751E+01 -0.553245159E-01  0.250061781E+01
   C  0.454818751E+01 -0.553245159E-01  0.250061781E+01
   H -0.144359913E+02  0.221372116E+02  0.248745078E+01
   H  0.144359913E+02  0.221372116E+02  0.248745078E+01
   H -0.261485910E+02 -0.277952956E+01  0.248995514E+01
   H  0.261485910E+02 -0.277952956E+01  0.248995514E+01
  Xx -0.221456846E-15  0.171445244E+04  0.249967156E+01
    11
 # iter = 37500  time[fs]=37.50000
   N -0.378613255E+01 -0.493763449E+01  0.250011304E+01
   N  0.378613255E+01 -0.493763449E+01  0.250011304E+01
   C -0.270684552E+01  0.407131676E+01  0.249985715E+01
   C  0.270684552E+01  0.407131676E+01  0.249985715E+01
   C -0.457566981E+01 -0.565945150E-01  0.250062406E+01
   C  0.457566981E+01 -0.565945150E-01  0.250062406E+01
   H -0.145400042E+02  0.222956067E+02  0.248734956E+01
   H  0.145400042E+02  0.222956067E+02  0.248734956E+01
   H -0.263375347E+02 -0.280299816E+01  0.248987426E+01
   H  0.263375347E+02 -0.280299816E+01  0.248987426E+01
  Xx -0.222958161E-15  0.172609305E+04  0.249966931E+01
    11
 # iter = 37750  time[fs]=37.75000
   N -0.380924201E+01 -0.496931290E+01  0.250011535E+01
   N  0.380924201E+01 -0.496931290E+01  0.250011535E+01
   C -0.272334658E+01  0.409619333E+01  0.249985446E+01
   C  0.272334658E+01  0.409619333E+01  0.249985446E+01
   C -0.460317739E+01 -0.578865795E-01  0.250062972E+01
   C  0.460317739E+01 -0.578865795E-01  0.250062972E+01
   H -0.146440615E+02  0.224540639E+02  0.248724834E+01
   H  0.146440615E+02  0.224540639E+02  0.248724834E+01
   H -0.265265527E+02 -0.282648563E+01  0.248979338E+01
   H  0.265265527E+02 -0.282648563E+01  0.248979338E+01
  Xx -0.224459322E-15  0.173773366E+04  0.249966706E+01
    11
 # iter = 38000  time[fs]=38.00000
   N -0.383229636E+01 -0.500104321E+01  0.250011735E+01
   N  0.383229636E+01 -0.500104321E+01  0.250011735E+01
   C -0.273990402E+01  0.412111649E+01  0.249985034E+01
   C  0.273990402E+01  0.412111649E+01  0.249985034E+01
   C -0.463071034E+01 -0.591742485E-01  0.250063559E+01
   C  0.463071034E+01 -0.591742485E-01  0.250063559E+01
   H -0.147481632E+02  0.226125833E+02  0.248714712E+01
   H  0.147481632E+02  0.226125833E+02  0.248714712E+01
   H -0.267156418E+02 -0.284999197E+01  0.248971249E+01
   H  0.267156418E+02 -0.284999197E+01  0.248971249E+01
  Xx -0.225960339E-15  0.174937427E+04  0.249966481E+01
    11
 # iter = 38250  time[fs]=38.25000
   N -0.385530592E+01 -0.503280214E+01  0.250011879E+01
   N  0.385530592E+01 -0.503280214E+01  0.250011879E+01
   C -0.275644252E+01  0.414606241E+01  0.249985015E+01
   C  0.275644252E+01  0.414606241E+01  0.249985015E+01
   C -0.465826862E+01 -0.604909627E-01  0.250064176E+01
   C  0.465826862E+01 -0.604909627E-01  0.250064176E+01
   H -0.148523075E+02  0.227711649E+02  0.248704589E+01
   H  0.148523075E+02  0.227711649E+02  0.248704589E+01
   H -0.269048020E+02 -0.287351687E+01  0.248963161E+01
   H  0.269048020E+02 -0.287351687E+01  0.248963161E+01
  Xx -0.227461191E-15  0.176101488E+04  0.249966257E+01
    11
 # iter = 38500  time[fs]=38.50000
   N -0.387829050E+01 -0.506456132E+01  0.250012005E+01
   N  0.387829050E+01 -0.506456132E+01  0.250012005E+01
   C -0.277299782E+01  0.417103585E+01  0.249984519E+01
   C  0.277299782E+01  0.417103585E+01  0.249984519E+01
   C -0.468586223E+01 -0.617970921E-01  0.250064756E+01
   C  0.468586223E+01 -0.617970921E-01  0.250064756E+01
   H -0.149564917E+02  0.229298086E+02  0.248694467E+01
   H  0.149564917E+02  0.229298086E+02  0.248694467E+01
   H -0.270940332E+02 -0.289705957E+01  0.248955073E+01
   H  0.270940332E+02 -0.289705957E+01  0.248955073E+01
  Xx -0.228961711E-15  0.177265549E+04  0.249966032E+01
    11
 # iter = 38750  time[fs]=38.75000
   N -0.390127293E+01 -0.509630836E+01  0.250012139E+01
   N  0.390127293E+01 -0.509630836E+01  0.250012139E+01
   C -0.278957524E+01  0.419607119E+01  0.249984313E+01
   C  0.278957524E+01  0.419607119E+01  0.249984313E+01
   C -0.471348774E+01 -0.631287757E-01  0.250065377E+01
   C  0.471348774E+01 -0.631287757E-01  0.250065377E+01
   H -0.150607160E+02  0.230885145E+02  0.248684345E+01
   H  0.150607160E+02  0.230885145E+02  0.248684345E+01
   H -0.272833355E+02 -0.292062003E+01  0.248946985E+01
   H  0.272833355E+02 -0.292062003E+01  0.248946985E+01
  Xx -0.230462046E-15  0.178429610E+04  0.249965807E+01
    11
 # iter = 39000  time[fs]=39.00000
   N -0.392428287E+01 -0.512805286E+01  0.250012264E+01
   N  0.392428287E+01 -0.512805286E+01  0.250012264E+01
   C -0.280613055E+01  0.422111090E+01  0.249984163E+01
   C  0.280613055E+01  0.422111090E+01  0.249984163E+01
   C -0.474114249E+01 -0.644625535E-01  0.250065959E+01
   C  0.474114249E+01 -0.644625535E-01  0.250065959E+01
   H -0.151649802E+02  0.232472826E+02  0.248674223E+01
   H  0.151649802E+02  0.232472826E+02  0.248674223E+01
   H -0.274727088E+02 -0.294419822E+01  0.248938897E+01
   H  0.274727088E+02 -0.294419822E+01  0.248938897E+01
  Xx -0.231962082E-15  0.179593671E+04  0.249965583E+01
    11
 # iter = 39250  time[fs]=39.25000
   N -0.394734630E+01 -0.515982389E+01  0.250012345E+01
   N  0.394734630E+01 -0.515982389E+01  0.250012345E+01
   C -0.282271012E+01  0.424621391E+01  0.249983674E+01
   C  0.282271012E+01  0.424621391E+01  0.249983674E+01
   C -0.476882686E+01 -0.657908628E-01  0.250066504E+01
   C  0.476882686E+01 -0.657908628E-01  0.250066504E+01
   H -0.152692843E+02  0.234061128E+02  0.248664101E+01
   H  0.152692843E+02  0.234061128E+02  0.248664101E+01
   H -0.276621532E+02 -0.296779338E+01  0.248930808E+01
   H  0.276621532E+02 -0.296779338E+01  0.248930808E+01
  Xx -0.233461935E-15  0.180757732E+04  0.249965358E+01
    11
 # iter = 39500  time[fs]=39.50000
   N -0.397046375E+01 -0.519165396E+01  0.250012393E+01
   N  0.397046375E+01 -0.519165396E+01  0.250012393E+01
   C -0.283928941E+01  0.427133928E+01  0.249983640E+01
   C  0.283928941E+01  0.427133928E+01  0.249983640E+01
   C -0.479653195E+01 -0.671363208E-01  0.250067107E+01
   C  0.479653195E+01 -0.671363208E-01  0.250067107E+01
   H -0.153736285E+02  0.235650053E+02  0.248653979E+01
   H  0.153736285E+02  0.235650053E+02  0.248653979E+01
   H -0.278516686E+02 -0.299140518E+01  0.248922720E+01
   H  0.278516686E+02 -0.299140518E+01  0.248922720E+01
  Xx -0.234961761E-15  0.181921793E+04  0.249965133E+01
    11
 # iter = 39750  time[fs]=39.75000
   N -0.399361448E+01 -0.522355073E+01  0.250012458E+01
   N  0.399361448E+01 -0.522355073E+01  0.250012458E+01
   C -0.285587234E+01  0.429646620E+01  0.249983269E+01
   C  0.285587234E+01  0.429646620E+01  0.249983269E+01
   C -0.482424891E+01 -0.684731771E-01  0.250067639E+01
   C  0.482424891E+01 -0.684731771E-01  0.250067639E+01
   H -0.154780126E+02  0.237239599E+02  0.248643857E+01
   H  0.154780126E+02  0.237239599E+02  0.248643857E+01
   H -0.280412551E+02 -0.301503364E+01  0.248914632E+01
   H  0.280412551E+02 -0.301503364E+01  0.248914632E+01
  Xx -0.236461528E-15  0.183085854E+04  0.249964908E+01
    11
 # iter = 40000  time[fs]=40.00000
   N -0.401677209E+01 -0.525549401E+01  0.250012522E+01
   N  0.401677209E+01 -0.525549401E+01  0.250012522E+01
   C -0.287246274E+01  0.432165701E+01  0.249982947E+01
   C  0.287246274E+01  0.432165701E+01  0.249982947E+01
   C -0.485199513E+01 -0.698282728E-01  0.250068173E+01
   C  0.485199513E+01 -0.698282729E-01  0.250068173E+01
   H -0.155824366E+02  0.238829757E+02  0.248633735E+01
   H  0.155824366E+02  0.238829757E+02  0.248633735E+01
   H -0.282309125E+02 -0.303867876E+01  0.248906544E+01
   H  0.282309125E+02 -0.303867876E+01  0.248906544E+01
  Xx -0.237961470E-15  0.184249915E+04  0.249964684E+01
    11
 # iter = 40250  time[fs]=40.25000
   N -0.403990800E+01 -0.528745168E+01  0.250012538E+01
   N  0.403990800E+01 -0.528745168E+01  0.250012538E+01
   C -0.288905926E+01  0.434682840E+01  0.249982875E+01
   C  0.288905926E+01  0.434682840E+01  0.249982875E+01
   C -0.487975892E+01 -0.711816881E-01  0.250068735E+01
   C  0.487975892E+01 -0.711816881E-01  0.250068735E+01
   H -0.156868994E+02  0.240420461E+02  0.248623612E+01
   H  0.156868994E+02  0.240420461E+02  0.248623612E+01
   H -0.284206350E+02 -0.306234048E+01  0.248898456E+01
   H  0.284206350E+02 -0.306234048E+01  0.248898456E+01
  Xx -0.239461599E-15  0.185413976E+04  0.249964459E+01
    11
 # iter = 40500  time[fs]=40.50000
   N -0.406299937E+01 -0.531939981E+01  0.250012515E+01
   N  0.406299937E+01 -0.531939981E+01  0.250012515E+01
   C -0.290567196E+01  0.437204278E+01  0.249982433E+01
   C  0.290567196E+01  0.437204278E+01  0.249982433E+01
   C -0.490754436E+01 -0.725349501E-01  0.250069236E+01
   C  0.490754436E+01 -0.725349502E-01  0.250069236E+01
   H -0.157913977E+02  0.242011697E+02  0.248613490E+01
   H  0.157913977E+02  0.242011697E+02  0.248613490E+01
   H -0.286104197E+02 -0.308601804E+01  0.248890367E+01
   H  0.286104197E+02 -0.308601804E+01  0.248890367E+01
  Xx -0.240961924E-15  0.186578037E+04  0.249964234E+01
    11
 # iter = 40750  time[fs]=40.75000
   N -0.408603927E+01 -0.535133584E+01  0.250012477E+01
   N  0.408603927E+01 -0.535133584E+01  0.250012477E+01
   C -0.292229095E+01  0.439730004E+01  0.249982291E+01
   C  0.292229095E+01  0.439730004E+01  0.249982291E+01
   C -0.493536986E+01 -0.739046150E-01  0.250069777E+01
   C  0.493536986E+01 -0.739046150E-01  0.250069777E+01
   H -0.158959316E+02  0.243603467E+02  0.248603368E+01
   H  0.158959316E+02  0.243603467E+02  0.248603368E+01
   H -0.288002666E+02 -0.310971113E+01  0.248882279E+01
   H  0.288002666E+02 -0.310971113E+01  0.248882279E+01
  Xx -0.242462482E-15  0.187742098E+04  0.249964010E+01
    11
 # iter = 41000  time[fs]=41.00000
   N -0.410903505E+01 -0.538327416E+01  0.250012442E+01
   N  0.410903505E+01 -0.538327416E+01  0.250012442E+01
   C -0.293893711E+01  0.442254940E+01  0.249982045E+01
   C  0.293893711E+01  0.442254940E+01  0.249982045E+01
   C -0.496321101E+01 -0.752653177E-01  0.250070290E+01
   C  0.496321101E+01 -0.752653178E-01  0.250070290E+01
   H -0.160005011E+02  0.245195770E+02  0.248593246E+01
   H  0.160005011E+02  0.245195770E+02  0.248593246E+01
   H -0.289901757E+02 -0.313341977E+01  0.248874191E+01
   H  0.289901757E+02 -0.313341977E+01  0.248874191E+01
  Xx -0.243963188E-15  0.188906159E+04  0.249963785E+01
    11
 # iter = 41250  time[fs]=41.25000
   N -0.413200706E+01 -0.541523778E+01  0.250012392E+01
   N  0.413200706E+01 -0.541523778E+01  0.250012392E+01
   C -0.295557717E+01  0.444787581E+01  0.249981650E+01
   C  0.295557717E+01  0.444787581E+01  0.249981650E+01
   C -0.499109177E+01 -0.766464014E-01  0.250070775E+01
   C  0.499109177E+01 -0.766464014E-01  0.250070775E+01
   H -0.161051060E+02  0.246788605E+02  0.248583124E+01
   H  0.161051060E+02  0.246788605E+02  0.248583124E+01
   H -0.291801469E+02 -0.315714396E+01  0.248866103E+01
   H  0.291801469E+02 -0.315714396E+01  0.248866103E+01
  Xx -0.245464049E-15  0.190070220E+04  0.249963560E+01
    11
 # iter = 41500  time[fs]=41.50000
   N -0.415498669E+01 -0.544724829E+01  0.250012297E+01
   N  0.415498669E+01 -0.544724829E+01  0.250012297E+01
   C -0.297224274E+01  0.447320201E+01  0.249981587E+01
   C  0.297224274E+01  0.447320201E+01  0.249981587E+01
   C -0.501898896E+01 -0.780213017E-01  0.250071353E+01
   C  0.501898896E+01 -0.780213017E-01  0.250071353E+01
   H -0.162097465E+02  0.248381973E+02  0.248573002E+01
   H  0.162097465E+02  0.248381973E+02  0.248573002E+01
   H -0.293701804E+02 -0.318088368E+01  0.248858015E+01
   H  0.293701804E+02 -0.318088368E+01  0.248858015E+01
  Xx -0.246965132E-15  0.191234281E+04  0.249963336E+01
    11
 # iter = 41750  time[fs]=41.75000
   N -0.417800674E+01 -0.547931604E+01  0.250012168E+01
   N  0.417800674E+01 -0.547931604E+01  0.250012168E+01
   C -0.298892880E+01  0.449856241E+01  0.249981201E+01
   C  0.298892880E+01  0.449856241E+01  0.249981201E+01
   C -0.504689538E+01 -0.794028270E-01  0.250071834E+01
   C  0.504689538E+01 -0.794028270E-01  0.250071834E+01
   H -0.163144225E+02  0.249975875E+02  0.248562880E+01
   H  0.163144225E+02  0.249975875E+02  0.248562880E+01
   H -0.295602759E+02 -0.320463895E+01  0.248849926E+01
   H  0.295602759E+02 -0.320463895E+01  0.248849926E+01
  Xx -0.248466420E-15  0.192398342E+04  0.249963111E+01
    11
 # iter = 42000  time[fs]=42.00000
   N -0.420108505E+01 -0.551142588E+01  0.250012037E+01
   N  0.420108505E+01 -0.551142588E+01  0.250012037E+01
   C -0.300560272E+01  0.452397430E+01  0.249980964E+01
   C  0.300560272E+01  0.452397430E+01  0.249980964E+01
   C -0.507483725E+01 -0.807949482E-01  0.250072354E+01
   C  0.507483725E+01 -0.807949483E-01  0.250072354E+01
   H -0.164191341E+02  0.251570309E+02  0.248552758E+01
   H  0.164191341E+02  0.251570309E+02  0.248552758E+01
   H -0.297504337E+02 -0.322840945E+01  0.248841838E+01
   H  0.297504337E+02 -0.322840945E+01  0.248841838E+01
  Xx -0.249967984E-15  0.193562403E+04  0.249962886E+01
    11
 # iter = 42250  time[fs]=42.25000
   N -0.422421637E+01 -0.554354450E+01  0.250011911E+01
   N  0.422421637E+01 -0.554354450E+01  0.250011911E+01
   C -0.302232202E+01  0.454937176E+01  0.249980784E+01
   C  0.302232202E+01  0.454937176E+01  0.249980784E+01
   C -0.510278026E+01 -0.821889735E-01  0.250072901E+01
   C  0.510278026E+01 -0.821889735E-01  0.250072901E+01
   H -0.165238811E+02  0.253165276E+02  0.248542635E+01
   H  0.165238811E+02  0.253165276E+02  0.248542635E+01
   H -0.299406536E+02 -0.325219440E+01  0.248833750E+01
   H  0.299406536E+02 -0.325219440E+01  0.248833750E+01
  Xx -0.251469880E-15  0.194726464E+04  0.249962661E+01
    11
 # iter = 42500  time[fs]=42.50000
   N -0.424737698E+01 -0.557564558E+01  0.250011770E+01
   N  0.424737698E+01 -0.557564558E+01  0.250011770E+01
   C -0.303903192E+01  0.457481567E+01  0.249980329E+01
   C  0.303903192E+01  0.457481567E+01  0.249980329E+01
   C -0.513075306E+01 -0.835971983E-01  0.250073346E+01
   C  0.513075306E+01 -0.835971983E-01  0.250073346E+01
   H -0.166286637E+02  0.254760776E+02  0.248532513E+01
   H  0.166286637E+02  0.254760776E+02  0.248532513E+01
   H -0.301309357E+02 -0.327599380E+01  0.248825662E+01
   H  0.301309357E+02 -0.327599380E+01  0.248825662E+01
  Xx -0.252972037E-15  0.195890525E+04  0.249962437E+01
    11
 # iter = 42750  time[fs]=42.75000
   N -0.427054005E+01 -0.560772419E+01  0.250011575E+01
   N  0.427054005E+01 -0.560772419E+01  0.250011575E+01
   C -0.305573769E+01  0.460027543E+01  0.249980301E+01
   C  0.305573769E+01  0.460027543E+01  0.249980301E+01
   C -0.515874540E+01 -0.850004227E-01  0.250073886E+01
   C  0.515874540E+01 -0.850004228E-01  0.250073886E+01
   H -0.167334819E+02  0.256356809E+02  0.248522391E+01
   H  0.167334819E+02  0.256356809E+02  0.248522391E+01
   H -0.303212800E+02 -0.329980762E+01  0.248817574E+01
   H  0.303212800E+02 -0.329980762E+01  0.248817574E+01
  Xx -0.254474435E-15  0.197054586E+04  0.249962212E+01
    11
 # iter = 43000  time[fs]=43.00000
   N -0.429368228E+01 -0.563980378E+01  0.250011342E+01
   N  0.429368228E+01 -0.563980378E+01  0.250011342E+01
   C -0.307248800E+01  0.462574476E+01  0.249979943E+01
   C  0.307248800E+01  0.462574476E+01  0.249979943E+01
   C -0.518675951E+01 -0.864208307E-01  0.250074371E+01
   C  0.518675951E+01 -0.864208307E-01  0.250074371E+01
   H -0.168383355E+02  0.257953375E+02  0.248512269E+01
   H  0.168383355E+02  0.257953375E+02  0.248512269E+01
   H -0.305116864E+02 -0.332363587E+01  0.248809485E+01
   H  0.305116864E+02 -0.332363587E+01  0.248809485E+01
  Xx -0.255976989E-15  0.198218647E+04  0.249961987E+01
    11
 # iter = 43250  time[fs]=43.25000
   N -0.431678054E+01 -0.567191953E+01  0.250011125E+01
   N  0.431678054E+01 -0.567191953E+01  0.250011125E+01
   C -0.308920200E+01  0.465125427E+01  0.249979630E+01
   C  0.308920200E+01  0.465125427E+01  0.249979630E+01
   C -0.521481015E+01 -0.878312703E-01  0.250074831E+01
   C  0.521481015E+01 -0.878312704E-01  0.250074831E+01
   H -0.169432247E+02  0.259550473E+02  0.248502147E+01
   H  0.169432247E+02  0.259550473E+02  0.248502147E+01
   H -0.307021516E+02 -0.334747856E+01  0.248801397E+01
   H  0.307021516E+02 -0.334747856E+01  0.248801397E+01
  Xx -0.257479640E-15  0.199382708E+04  0.249961763E+01
    11
 # iter = 43500  time[fs]=43.50000
   N -0.433982133E+01 -0.570408947E+01  0.250010917E+01
   N  0.433982133E+01 -0.570408947E+01  0.250010917E+01
   C -0.310594750E+01  0.467677302E+01  0.249979602E+01
   C  0.310594750E+01  0.467677302E+01  0.249979602E+01
   C -0.524286924E+01 -0.892579144E-01  0.250075360E+01
   C  0.524286924E+01 -0.892579145E-01  0.250075360E+01
   H -0.170481494E+02  0.261148105E+02  0.248492025E+01
   H  0.170481494E+02  0.261148105E+02  0.248492025E+01
   H -0.308926702E+02 -0.337133562E+01  0.248793309E+01
   H  0.308926702E+02 -0.337133562E+01  0.248793309E+01
  Xx -0.258982334E-15  0.200546769E+04  0.249961538E+01
    11
 # iter = 43750  time[fs]=43.75000
   N -0.436281652E+01 -0.573630805E+01  0.250010674E+01
   N  0.436281652E+01 -0.573630805E+01  0.250010674E+01
   C -0.312270472E+01  0.470233543E+01  0.249979119E+01
   C  0.312270472E+01  0.470233543E+01  0.249979119E+01
   C -0.527095978E+01 -0.906875035E-01  0.250075762E+01
   C  0.527095978E+01 -0.906875035E-01  0.250075762E+01
   H -0.171531096E+02  0.262746253E+02  0.248481903E+01
   H  0.171531096E+02  0.262746253E+02  0.248481903E+01
   H -0.310832420E+02 -0.339520626E+01  0.248785221E+01
   H  0.310832420E+02 -0.339520626E+01  0.248785221E+01
  Xx -0.260485024E-15  0.201710830E+04  0.249961313E+01
    11
 # iter = 44000  time[fs]=44.00000
   N -0.438579797E+01 -0.576855269E+01  0.250010381E+01
   N  0.438579797E+01 -0.576855269E+01  0.250010381E+01
   C -0.313943998E+01  0.472791648E+01  0.249979085E+01
   C  0.313943998E+01  0.472791648E+01  0.249979085E+01
   C -0.529906363E+01 -0.921126279E-01  0.250076228E+01
   C  0.529906363E+01 -0.921126280E-01  0.250076228E+01
   H -0.172581054E+02  0.264344852E+02  0.248471781E+01
   H  0.172581054E+02  0.264344852E+02  0.248471781E+01
   H -0.312738671E+02 -0.341909021E+01  0.248777133E+01
   H  0.312738671E+02 -0.341909021E+01  0.248777133E+01
  Xx -0.261987679E-15  0.202874891E+04  0.249961088E+01
    11
 # iter = 44250  time[fs]=44.25000
   N -0.440879642E+01 -0.580079936E+01  0.250010079E+01
   N  0.440879642E+01 -0.580079936E+01  0.250010079E+01
   C -0.315622832E+01  0.475353406E+01  0.249978821E+01
   C  0.315622832E+01  0.475353406E+01  0.249978821E+01
   C -0.532717707E+01 -0.935609173E-01  0.250076715E+01
   C  0.532717707E+01 -0.935609173E-01  0.250076715E+01
   H -0.173631367E+02  0.265943895E+02  0.248461658E+01
   H  0.173631367E+02  0.265943895E+02  0.248461658E+01
   H -0.314645455E+02 -0.344298749E+01  0.248769044E+01
   H  0.314645455E+02 -0.344298749E+01  0.248769044E+01
  Xx -0.263490304E-15  0.204038952E+04  0.249960864E+01
    11
 # iter = 44500  time[fs]=44.50000
   N -0.443183277E+01 -0.583303442E+01  0.250009807E+01
   N  0.443183277E+01 -0.583303442E+01  0.250009807E+01
   C -0.317299288E+01  0.477917534E+01  0.249978349E+01
   C  0.317299288E+01  0.477917534E+01  0.249978349E+01
   C -0.535531743E+01 -0.949960779E-01  0.250077113E+01
   C  0.535531743E+01 -0.949960779E-01  0.250077113E+01
   H -0.174682019E+02  0.267543382E+02  0.248451536E+01
   H  0.174682019E+02  0.267543382E+02  0.248451536E+01
   H -0.316552772E+02 -0.346689808E+01  0.248760956E+01
   H  0.316552772E+02 -0.346689808E+01  0.248760956E+01
  Xx -0.264992748E-15  0.205203013E+04  0.249960639E+01
    11
 # iter = 44750  time[fs]=44.75000
   N -0.445491937E+01 -0.586525800E+01  0.250009523E+01
   N  0.445491937E+01 -0.586525800E+01  0.250009523E+01
   C -0.318978219E+01  0.480481934E+01  0.249978424E+01
   C  0.318978219E+01  0.480481934E+01  0.249978424E+01
   C -0.538346585E+01 -0.964507253E-01  0.250077630E+01
   C  0.538346585E+01 -0.964507253E-01  0.250077630E+01
   H -0.175732945E+02  0.269143314E+02  0.248441414E+01
   H  0.175732945E+02  0.269143314E+02  0.248441414E+01
   H -0.318460622E+02 -0.349082201E+01  0.248752868E+01
   H  0.318460622E+02 -0.349082201E+01  0.248752868E+01
  Xx -0.266495036E-15  0.206367074E+04  0.249960414E+01
    11
 # iter = 45000  time[fs]=45.00000
   N -0.447805472E+01 -0.589748585E+01  0.250009188E+01
   N  0.447805472E+01 -0.589748585E+01  0.250009188E+01
   C -0.320660163E+01  0.483051249E+01  0.249977931E+01
   C  0.320660163E+01  0.483051249E+01  0.249977931E+01
   C -0.541164192E+01 -0.979005474E-01  0.250078036E+01
   C  0.541164192E+01 -0.979005474E-01  0.250078036E+01
   H -0.176784137E+02  0.270743689E+02  0.248431292E+01
   H  0.176784137E+02  0.270743689E+02  0.248431292E+01
   H -0.320369005E+02 -0.351475925E+01  0.248744780E+01
   H  0.320369005E+02 -0.351475925E+01  0.248744780E+01
  Xx -0.267997159E-15  0.207531135E+04  0.249960190E+01
    11
 # iter = 45250  time[fs]=45.25000
   N -0.450121928E+01 -0.592974753E+01  0.250008825E+01
   N  0.450121928E+01 -0.592974753E+01  0.250008825E+01
   C -0.322339845E+01  0.485619312E+01  0.249977762E+01
   C  0.322339845E+01  0.485619312E+01  0.249977762E+01
   C -0.543984349E+01 -0.993650523E-01  0.250078442E+01
   C  0.543984349E+01 -0.993650523E-01  0.250078442E+01
   H -0.177835596E+02  0.272344508E+02  0.248421170E+01
   H  0.177835596E+02  0.272344508E+02  0.248421170E+01
   H -0.322277921E+02 -0.353870973E+01  0.248736692E+01
   H  0.322277921E+02 -0.353870973E+01  0.248736692E+01
  Xx -0.269499001E-15  0.208695196E+04  0.249959965E+01
    11
 # iter = 45500  time[fs]=45.50000
   N -0.452437970E+01 -0.596206738E+01  0.250008476E+01
   N  0.452437970E+01 -0.596206738E+01  0.250008476E+01
   C -0.324023983E+01  0.488190195E+01  0.249977746E+01
   C  0.324023983E+01  0.488190195E+01  0.249977746E+01
   C -0.546806058E+01 -0.100834078E+00  0.250078931E+01
   C  0.546806058E+01 -0.100834078E+00  0.250078931E+01
   H -0.178887322E+02  0.273945772E+02  0.248411048E+01
   H  0.178887322E+02  0.273945772E+02  0.248411048E+01
   H -0.324187369E+02 -0.356267320E+01  0.248728603E+01
   H  0.324187369E+02 -0.356267320E+01  0.248728603E+01
  Xx -0.271000697E-15  0.209859257E+04  0.249959740E+01
    11
 # iter = 45750  time[fs]=45.75000
   N -0.454750418E+01 -0.599444093E+01  0.250008116E+01
   N  0.454750418E+01 -0.599444093E+01  0.250008116E+01
   C -0.325708066E+01  0.490765179E+01  0.249977181E+01
   C  0.325708066E+01  0.490765179E+01  0.249977181E+01
   C -0.549630614E+01 -0.102296599E+00  0.250079253E+01
   C  0.549630614E+01 -0.102296599E+00  0.250079253E+01
   H -0.179939314E+02  0.275547480E+02  0.248400926E+01
   H  0.179939314E+02  0.275547480E+02  0.248400926E+01
   H -0.326097351E+02 -0.358664915E+01  0.248720515E+01
   H  0.326097351E+02 -0.358664915E+01  0.248720515E+01
  Xx -0.272502213E-15  0.211023318E+04  0.249959515E+01
    11
 # iter = 46000  time[fs]=46.00000
   N -0.457057685E+01 -0.602683818E+01  0.250007728E+01
   N  0.457057685E+01 -0.602683818E+01  0.250007728E+01
   C -0.327391707E+01  0.493338865E+01  0.249977287E+01
   C  0.327391707E+01  0.493338865E+01  0.249977287E+01
   C -0.552456854E+01 -0.103783364E+00  0.250079674E+01
   C  0.552456854E+01 -0.103783364E+00  0.250079674E+01
   H -0.180991572E+02  0.277149631E+02  0.248390804E+01
   H  0.180991572E+02  0.277149631E+02  0.248390804E+01
   H -0.328007865E+02 -0.361063732E+01  0.248712427E+01
   H  0.328007865E+02 -0.361063732E+01  0.248712427E+01
  Xx -0.274003536E-15  0.212187379E+04  0.249959291E+01
    11
 # iter = 46250  time[fs]=46.25000
   N -0.459359876E+01 -0.605922537E+01  0.250007327E+01
   N  0.459359876E+01 -0.605922537E+01  0.250007327E+01
   C -0.329078127E+01  0.495919529E+01  0.249976925E+01
   C  0.329078127E+01  0.495919529E+01  0.249976925E+01
   C -0.555284270E+01 -0.105251199E+00  0.250080062E+01
   C  0.555284270E+01 -0.105251200E+00  0.250080062E+01
   H -0.182044097E+02  0.278752227E+02  0.248380681E+01
   H  0.182044097E+02  0.278752227E+02  0.248380681E+01
   H -0.329918912E+02 -0.363463769E+01  0.248704339E+01
   H  0.329918912E+02 -0.363463769E+01  0.248704339E+01
  Xx -0.275504786E-15  0.213351440E+04  0.249959066E+01
    11
 # iter = 46500  time[fs]=46.50000
   N -0.461658002E+01 -0.609158909E+01  0.250006929E+01
   N  0.461658002E+01 -0.609158909E+01  0.250006929E+01
   C -0.330763288E+01  0.498500678E+01  0.249976583E+01
   C  0.330763288E+01  0.498500678E+01  0.249976583E+01
   C -0.558114098E+01 -0.106744725E+00  0.250080375E+01
   C  0.558114098E+01 -0.106744725E+00  0.250080375E+01
   H -0.183096888E+02  0.280355267E+02  0.248370559E+01
   H  0.183096888E+02  0.280355267E+02  0.248370559E+01
   H -0.331830493E+02 -0.365865028E+01  0.248696251E+01
   H  0.331830493E+02 -0.365865028E+01  0.248696251E+01
  Xx -0.277005855E-15  0.214515501E+04  0.249958841E+01
    11
 # iter = 46750  time[fs]=46.75000
   N -0.463954208E+01 -0.612394349E+01  0.250006534E+01
   N  0.463954208E+01 -0.612394349E+01  0.250006534E+01
   C -0.332449555E+01  0.501083593E+01  0.249976728E+01
   C  0.332449555E+01  0.501083593E+01  0.249976728E+01
   C -0.560944213E+01 -0.108238302E+00  0.250080822E+01
   C  0.560944213E+01 -0.108238302E+00  0.250080822E+01
   H -0.184149946E+02  0.281958751E+02  0.248360437E+01
   H  0.184149946E+02  0.281958751E+02  0.248360437E+01
   H -0.333742606E+02 -0.368267508E+01  0.248688163E+01
   H  0.333742606E+02 -0.368267508E+01  0.248688163E+01
  Xx -0.278506834E-15  0.215679562E+04  0.249958617E+01
    11
 # iter = 47000  time[fs]=47.00000
   N -0.466252067E+01 -0.615631763E+01  0.250006119E+01
   N  0.466252067E+01 -0.615631763E+01  0.250006119E+01
   C -0.334136666E+01  0.503672047E+01  0.249976074E+01
   C  0.334136666E+01  0.503672047E+01  0.249976074E+01
   C -0.563776325E+01 -0.109732042E+00  0.250081120E+01
   C  0.563776325E+01 -0.109732042E+00  0.250081120E+01
   H -0.185203270E+02  0.283562679E+02  0.248350315E+01
   H  0.185203270E+02  0.283562679E+02  0.248350315E+01
   H -0.335655252E+02 -0.370671210E+01  0.248680074E+01
   H  0.335655252E+02 -0.370671210E+01  0.248680074E+01
  Xx -0.280007776E-15  0.216843623E+04  0.249958392E+01
    11
 # iter = 47250  time[fs]=47.25000
   N -0.468554920E+01 -0.618873312E+01  0.250005679E+01
   N  0.468554920E+01 -0.618873312E+01  0.250005679E+01
   C -0.335823890E+01  0.506257463E+01  0.249976143E+01
   C  0.335823890E+01  0.506257463E+01  0.249976143E+01
   C -0.566611217E+01 -0.111243633E+00  0.250081471E+01
   C  0.566611217E+01 -0.111243633E+00  0.250081471E+01
   H -0.186256860E+02  0.285167051E+02  0.248340193E+01
   H  0.186256860E+02  0.285167051E+02  0.248340193E+01
   H -0.337568431E+02 -0.373076132E+01  0.248671986E+01
   H  0.337568431E+02 -0.373076132E+01  0.248671986E+01
  Xx -0.281508694E-15  0.218007684E+04  0.249958167E+01
    11
 # iter = 47500  time[fs]=47.50000
   N -0.470863661E+01 -0.622119631E+01  0.250005235E+01
   N  0.470863661E+01 -0.622119631E+01  0.250005235E+01
   C -0.337512014E+01  0.508847418E+01  0.249976038E+01
   C  0.337512014E+01  0.508847418E+01  0.249976038E+01
   C -0.569446608E+01 -0.112746494E+00  0.250081883E+01
   C  0.569446608E+01 -0.112746494E+00  0.250081883E+01
   H -0.187310717E+02  0.286771868E+02  0.248330071E+01
   H  0.187310717E+02  0.286771868E+02  0.248330071E+01
   H -0.339482143E+02 -0.375482276E+01  0.248663898E+01
   H  0.339482143E+02 -0.375482276E+01  0.248663898E+01
  Xx -0.283009746E-15  0.219171745E+04  0.249957942E+01
    11
 # iter = 47750  time[fs]=47.75000
   N -0.473176870E+01 -0.625369726E+01  0.250004807E+01
   N  0.473176870E+01 -0.625369726E+01  0.250004807E+01
   C -0.339201140E+01  0.511438740E+01  0.249975460E+01
   C  0.339201140E+01  0.511438740E+01  0.249975460E+01
   C -0.572285775E+01 -0.114269640E+00  0.250082141E+01
   C  0.572285775E+01 -0.114269640E+00  0.250082141E+01
   H -0.188364841E+02  0.288377128E+02  0.248319949E+01
   H  0.188364841E+02  0.288377128E+02  0.248319949E+01
   H -0.341396387E+02 -0.377889606E+01  0.248655810E+01
   H  0.341396387E+02 -0.377889606E+01  0.248655810E+01
  Xx -0.284510860E-15  0.220335806E+04  0.249957718E+01
    11
 # iter = 48000  time[fs]=48.00000
   N -0.475492094E+01 -0.628621099E+01  0.250004378E+01
   N  0.475492094E+01 -0.628621099E+01  0.250004378E+01
   C -0.340892103E+01  0.514028974E+01  0.249975757E+01
   C  0.340892103E+01  0.514028974E+01  0.249975757E+01
   C -0.575125787E+01 -0.115788821E+00  0.250082554E+01
   C  0.575125787E+01 -0.115788821E+00  0.250082554E+01
   H -0.189419231E+02  0.289982832E+02  0.248309827E+01
   H  0.189419231E+02  0.289982832E+02  0.248309827E+01
   H -0.343311165E+02 -0.380298049E+01  0.248647722E+01
   H  0.343311165E+02 -0.380298049E+01  0.248647722E+01
  Xx -0.286012136E-15  0.221499867E+04  0.249957493E+01
    11
 # iter = 48250  time[fs]=48.25000
   N -0.477806733E+01 -0.631871112E+01  0.250003929E+01
   N  0.477806733E+01 -0.631871112E+01  0.250003929E+01
   C -0.342582498E+01  0.516626253E+01  0.249975162E+01
   C  0.342582498E+01  0.516626253E+01  0.249975162E+01
   C -0.577967865E+01 -0.117324364E+00  0.250082845E+01
   C  0.577967865E+01 -0.117324364E+00  0.250082845E+01
   H -0.190473887E+02  0.291588981E+02  0.248299704E+01
   H  0.190473887E+02  0.291588981E+02  0.248299704E+01
   H -0.345226476E+02 -0.382707601E+01  0.248639633E+01
   H  0.345226476E+02 -0.382707601E+01  0.248639633E+01
  Xx -0.287513559E-15  0.222663928E+04  0.249957268E+01
    11
 # iter = 48500  time[fs]=48.50000
   N -0.480118451E+01 -0.635118738E+01  0.250003452E+01
   N  0.480118451E+01 -0.635118738E+01  0.250003452E+01
   C -0.344276123E+01  0.519221833E+01  0.249974968E+01
   C  0.344276123E+01  0.519221833E+01  0.249974968E+01
   C -0.580812296E+01 -0.118859696E+00  0.250083099E+01
   C  0.580812296E+01 -0.118859696E+00  0.250083099E+01
   H -0.191528810E+02  0.293195574E+02  0.248289582E+01
   H  0.191528810E+02  0.293195574E+02  0.248289582E+01
   H -0.347142319E+02 -0.385118264E+01  0.248631545E+01
   H  0.347142319E+02 -0.385118264E+01  0.248631545E+01
  Xx -0.289015064E-15  0.223827988E+04  0.249957044E+01
    11
 # iter = 48750  time[fs]=48.75000
   N -0.482425232E+01 -0.638365390E+01  0.250002972E+01
   N  0.482425232E+01 -0.638365390E+01  0.250002972E+01
   C -0.345970325E+01  0.521821830E+01  0.249975125E+01
   C  0.345970325E+01  0.521821830E+01  0.249975125E+01
   C -0.583656058E+01 -0.120406899E+00  0.250083501E+01
   C  0.583656058E+01 -0.120406899E+00  0.250083501E+01
   H -0.192583999E+02  0.294802607E+02  0.248279460E+01
   H  0.192583999E+02  0.294802607E+02  0.248279460E+01
   H -0.349058696E+02 -0.387530037E+01  0.248623457E+01
   H  0.349058696E+02 -0.387530037E+01  0.248623457E+01
  Xx -0.290516724E-15  0.224992049E+04  0.249956819E+01
    11
 # iter = 49000  time[fs]=49.00000
   N -0.484726148E+01 -0.641613942E+01  0.250002510E+01
   N  0.484726148E+01 -0.641613942E+01  0.250002510E+01
   C -0.347664428E+01  0.524425795E+01  0.249974375E+01
   C  0.347664428E+01  0.524425795E+01  0.249974375E+01
   C -0.586503511E+01 -0.121967946E+00  0.250083687E+01
   C  0.586503511E+01 -0.121967946E+00  0.250083687E+01
   H -0.193639455E+02  0.296410019E+02  0.248269338E+01
   H  0.193639455E+02  0.296410019E+02  0.248269338E+01
   H -0.350975605E+02 -0.389942921E+01  0.248615369E+01
   H  0.350975605E+02 -0.389942921E+01  0.248615369E+01
  Xx -0.292018501E-15  0.226156110E+04  0.249956594E+01
    11
 # iter = 49250  time[fs]=49.25000
   N -0.487022911E+01 -0.644866831E+01  0.250002059E+01
   N  0.487022911E+01 -0.644866831E+01  0.250002059E+01
   C -0.349362461E+01  0.527028394E+01  0.249974671E+01
   C  0.349362461E+01  0.527028394E+01  0.249974671E+01
   C -0.589350884E+01 -0.123525879E+00  0.250084017E+01
   C  0.589350884E+01 -0.123525879E+00  0.250084017E+01
   H -0.194695177E+02  0.298017786E+02  0.248259216E+01
   H  0.194695177E+02  0.298017786E+02  0.248259216E+01
   H -0.352893047E+02 -0.392356914E+01  0.248607281E+01
   H  0.352893047E+02 -0.392356914E+01  0.248607281E+01
  Xx -0.293520484E-15  0.227320171E+04  0.249956370E+01
    11
 # iter = 49500  time[fs]=49.50000
   N -0.489319561E+01 -0.648124389E+01  0.250001587E+01
   N  0.489319561E+01 -0.648124389E+01  0.250001587E+01
   C -0.351058377E+01  0.529636110E+01  0.249974400E+01
   C  0.351058377E+01  0.529636110E+01  0.249974400E+01
   C -0.592200530E+01 -0.125101858E+00  0.250084329E+01
   C  0.592200530E+01 -0.125101858E+00  0.250084329E+01
   H -0.195751166E+02  0.299625908E+02  0.248249094E+01
   H  0.195751166E+02  0.299625908E+02  0.248249094E+01
   H -0.354811022E+02 -0.394772018E+01  0.248599192E+01
   H  0.354811022E+02 -0.394772018E+01  0.248599192E+01
  Xx -0.295022623E-15  0.228484232E+04  0.249956145E+01
    11
 # iter = 49750  time[fs]=49.75000
   N -0.491619548E+01 -0.651384914E+01  0.250001093E+01
   N  0.491619548E+01 -0.651384914E+01  0.250001093E+01
   C -0.352756154E+01  0.532243759E+01  0.249973928E+01
   C  0.352756154E+01  0.532243759E+01  0.249973928E+01
   C -0.595053113E+01 -0.126677745E+00  0.250084492E+01
   C  0.595053113E+01 -0.126677745E+00  0.250084492E+01
   H -0.196807421E+02  0.301234386E+02  0.248238972E+01
   H  0.196807421E+02  0.301234386E+02  0.248238972E+01
   H -0.356729530E+02 -0.397188232E+01  0.248591104E+01
   H  0.356729530E+02 -0.397188232E+01  0.248591104E+01
  Xx -0.296524951E-15  0.229648293E+04  0.249955920E+01
    11
 # iter = 50000  time[fs]=50.00000
   N -0.493924236E+01 -0.654645713E+01  0.250000611E+01
   N  0.493924236E+01 -0.654645713E+01  0.250000611E+01
   C -0.354455974E+01  0.534852245E+01  0.249974288E+01
   C  0.354455974E+01  0.534852245E+01  0.249974288E+01
   C -0.597906051E+01 -0.128272834E+00  0.250084868E+01
   C  0.597906051E+01 -0.128272834E+00  0.250084868E+01
   H -0.197863943E+02  0.302843219E+02  0.248228850E+01
   H  0.197863943E+02  0.302843219E+02  0.248228850E+01
   H -0.358648491E+02 -0.399605551E+01  0.248583016E+01
   H  0.358648491E+02 -0.399605551E+01  0.248583016E+01
  Xx -0.298027393E-15  0.230812354E+04  0.249955695E+01
