    11
 # iter =     0  time[fs]= 0.00000
   N -0.668466338E+00 -0.116463086E+01  0.250000000E+01
   N  0.668466338E+00 -0.116463086E+01  0.250000000E+01
   C -0.692277627E+00  0.124916000E+01  0.250000000E+01
   C  0.692277627E+00  0.124916000E+01  0.250000000E+01
   C -0.132315667E+01  0.433975300E-03  0.250000000E+01
   C  0.132315667E+01  0.433975300E-03  0.250000000E+01
   H -0.127180384E+01  0.216832769E+01  0.250000000E+01
   H  0.127180384E+01  0.216832769E+01  0.250000000E+01
   H -0.240769469E+01 -0.832907948E-01  0.250000000E+01
   H  0.240769469E+01 -0.832907948E-01  0.250000000E+01
  Xx  0.668466338E+00 -0.200000000E+02  0.250000000E+01
    11
 # iter =   250  time[fs]= 0.25000
   N -0.668479545E+00 -0.116464712E+01  0.250000000E+01
   N  0.668478976E+00 -0.116464692E+01  0.250000000E+01
   C -0.692272252E+00  0.124914177E+01  0.250000000E+01
   C  0.692271913E+00  0.124914186E+01  0.250000000E+01
   C -0.132313013E+01  0.434097655E-03  0.250000000E+01
   C  0.132312956E+01  0.434250740E-03  0.250000000E+01
   H -0.127181199E+01  0.216833877E+01  0.250000000E+01
   H  0.127181110E+01  0.216833885E+01  0.250000000E+01
   H -0.240778142E+01 -0.832850418E-01  0.250000000E+01
   H  0.240777934E+01 -0.832837103E-01  0.250000000E+01
  Xx  0.668470636E+00 -0.835699904E+01  0.250000000E+01
    11
 # iter =   500  time[fs]= 0.50000
   N -0.668789536E+00 -0.116475740E+01  0.250000000E+01
   N  0.490847558E-01  0.324951712E+01  0.250000000E+01
   C -0.692448896E+00  0.124911174E+01  0.250000000E+01
   C  0.693153464E+00  0.124943585E+01  0.250000000E+01
   C -0.132319521E+01  0.492949208E-03  0.250000000E+01
   C  0.132353950E+01  0.887866929E-03  0.250000000E+01
   H -0.127222062E+01  0.216867611E+01  0.250000000E+01
   H  0.127241767E+01  0.216891986E+01  0.250000000E+01
   H -0.240844820E+01 -0.833104243E-01  0.250000000E+01
   H  0.240890809E+01 -0.831235284E-01  0.250000000E+01
  Xx  0.119232951E+01 -0.858267817E+00  0.250000000E+01
    11
 # iter =   750  time[fs]= 0.75000
   N -0.669469851E+00 -0.116578475E+01  0.249999988E+01
   N -0.157543270E+01  0.148037496E+02  0.249999937E+01
   C -0.693925895E+00  0.124923126E+01  0.249999972E+01
   C  0.698364550E+00  0.125086186E+01  0.249999970E+01
   C -0.132383776E+01  0.558561174E-03  0.249999977E+01
   C  0.132089229E+01  0.131190580E-01  0.249999988E+01
   H -0.127817594E+01  0.217436890E+01  0.249999841E+01
   H  0.128198425E+01  0.217880959E+01  0.249999813E+01
   H -0.241561957E+01 -0.836719122E-01  0.249999855E+01
   H  0.244725141E+01 -0.107736379E-01  0.249999876E+01
  Xx  0.256987995E+01 -0.849477384E-01  0.249999950E+01
    11
 # iter =  1000  time[fs]= 1.00000
   N -0.670033480E+00 -0.116802520E+01  0.249999897E+01
   N -0.319995196E+01  0.263579533E+02  0.249999715E+01
   C -0.696353673E+00  0.125002202E+01  0.249999873E+01
   C  0.703754518E+00  0.125372669E+01  0.249999856E+01
   C -0.132526677E+01  0.309816018E-03  0.249999880E+01
   C  0.131347552E+01  0.285275257E-01  0.249999937E+01
   H -0.129058425E+01  0.218962249E+01  0.249999247E+01
   H  0.129832612E+01  0.220088204E+01  0.249999111E+01
   H -0.243363091E+01 -0.849309914E-01  0.249999314E+01
   H  0.229876190E+01  0.660825103E+00  0.249999254E+01
  Xx  0.397637124E+01  0.631522074E+00  0.249999787E+01
    11
 # iter =  1250  time[fs]= 1.25000
   N -0.670104551E+00 -0.117191383E+01  0.249999783E+01
   N -0.482447649E+01  0.379121923E+02  0.249999480E+01
   C -0.698889941E+00  0.125188498E+01  0.249999715E+01
   C  0.709497903E+00  0.125759796E+01  0.249999711E+01
   C -0.132778110E+01 -0.222370165E-03  0.249999728E+01
   C  0.130651282E+01  0.422997503E-01  0.249999852E+01
   H -0.130972709E+01  0.221509408E+01  0.249998456E+01
   H  0.131780749E+01  0.223129096E+01  0.249998088E+01
   H -0.246395659E+01 -0.875874855E-01  0.249998637E+01
   H  0.213764410E+01  0.133680781E+01  0.249998508E+01
  Xx  0.538806208E+01  0.134786867E+01  0.249999560E+01
    11
 # iter =  1500  time[fs]= 1.50000
   N -0.669742422E+00 -0.117760474E+01  0.249999605E+01
   N -0.644900365E+01  0.494664502E+02  0.249999246E+01
   C -0.701718302E+00  0.125463702E+01  0.249999519E+01
   C  0.715332041E+00  0.126256900E+01  0.249999519E+01
   C -0.133146128E+01 -0.648181340E-03  0.249999548E+01
   C  0.130056288E+01  0.544690523E-01  0.249999750E+01
   H -0.133532626E+01  0.224995807E+01  0.249997330E+01
   H  0.133880785E+01  0.227012022E+01  0.249996834E+01
   H -0.250467822E+01 -0.912825636E-01  0.249997831E+01
   H  0.198326002E+01  0.201265489E+01  0.249997484E+01
  Xx  0.680149613E+01  0.206449686E+01  0.249999275E+01
    11
 # iter =  1750  time[fs]= 1.75000
   N -0.669059333E+00 -0.118478377E+01  0.249999414E+01
   N -0.807353303E+01  0.610207210E+02  0.249999012E+01
   C -0.705223113E+00  0.125839984E+01  0.249999320E+01
   C  0.721714906E+00  0.126849368E+01  0.249999278E+01
   C -0.133586884E+01 -0.131125614E-02  0.249999327E+01
   C  0.129561178E+01  0.649966450E-01  0.249999655E+01
   H -0.136668860E+01  0.229360801E+01  0.249995751E+01
   H  0.135278106E+01  0.231808985E+01  0.249995581E+01
   H -0.255624421E+01 -0.961640067E-01  0.249996961E+01
   H  0.184287689E+01  0.268895569E+01  0.249996273E+01
  Xx  0.821597351E+01  0.278136952E+01  0.249998924E+01
    11
 # iter =  2000  time[fs]= 2.00000
   N -0.668030082E+00 -0.119346745E+01  0.249999228E+01
   N -0.969806343E+01  0.725749926E+02  0.249998777E+01
   C -0.709399442E+00  0.126285392E+01  0.249999102E+01
   C  0.728699436E+00  0.127552430E+01  0.249999006E+01
   C -0.134105115E+01 -0.187958418E-02  0.249999132E+01
   C  0.129177830E+01  0.739261483E-01  0.249999538E+01
   H -0.140356985E+01  0.234543467E+01  0.249994028E+01
   H  0.135949980E+01  0.236730934E+01  0.249994198E+01
   H -0.261795643E+01 -0.102480542E+00  0.249995732E+01
   H  0.171492878E+01  0.337291155E+01  0.249994829E+01
  Xx  0.963114061E+01  0.349843948E+01  0.249998512E+01
    11
 # iter =  2250  time[fs]= 2.25000
   N -0.666688599E+00 -0.120373702E+01  0.249999050E+01
   N -0.113225938E+02  0.841292641E+02  0.249998543E+01
   C -0.713993337E+00  0.126761568E+01  0.249998884E+01
   C  0.735881220E+00  0.128368762E+01  0.249998715E+01
   C -0.134711922E+01 -0.202206382E-02  0.249998909E+01
   C  0.128910411E+01  0.813821031E-01  0.249999475E+01
   H -0.144573924E+01  0.240541941E+01  0.249992041E+01
   H  0.136885096E+01  0.242002244E+01  0.249992731E+01
   H -0.268741909E+01 -0.109776258E+00  0.249994400E+01
   H  0.158960948E+01  0.406188144E+01  0.249993205E+01
  Xx  0.110468124E+02  0.421567417E+01  0.249998040E+01
    11
 # iter =  2500  time[fs]= 2.50000
   N -0.664967916E+00 -0.121532448E+01  0.249998905E+01
   N -0.129471242E+02  0.956835356E+02  0.249998308E+01
   C -0.719023269E+00  0.127306219E+01  0.249998666E+01
   C  0.743605962E+00  0.129287755E+01  0.249998441E+01
   C -0.135422181E+01 -0.232676915E-02  0.249998638E+01
   C  0.128739095E+01  0.874606358E-01  0.249999443E+01
   H -0.149266464E+01  0.247284784E+01  0.249989893E+01
   H  0.138130521E+01  0.247759348E+01  0.249990933E+01
   H -0.276410755E+01 -0.118016824E+00  0.249992557E+01
   H  0.146509556E+01  0.475353259E+01  0.249991449E+01
  Xx  0.124628761E+02  0.493303162E+01  0.249997528E+01
    11
 # iter =  2750  time[fs]= 2.75000
   N -0.663008557E+00 -0.122813684E+01  0.249998748E+01
   N -0.145716546E+02  0.107237807E+03  0.249998074E+01
   C -0.724305801E+00  0.127922838E+01  0.249998565E+01
   C  0.751366530E+00  0.130297459E+01  0.249998164E+01
   C -0.136221968E+01 -0.258957983E-02  0.249998317E+01
   C  0.128676772E+01  0.921661888E-01  0.249999401E+01
   H -0.154301871E+01  0.254519255E+01  0.249987480E+01
   H  0.139739532E+01  0.254155683E+01  0.249989420E+01
   H -0.284779721E+01 -0.127058381E+00  0.249990450E+01
   H  0.134093385E+01  0.544722418E+01  0.249989490E+01
  Xx  0.138792475E+02  0.565049034E+01  0.249997015E+01
    11
 # iter =  3000  time[fs]= 3.00000
   N -0.660777009E+00 -0.124217633E+01  0.249998626E+01
   N -0.161961850E+02  0.118792079E+03  0.249997839E+01
   C -0.729895423E+00  0.128619222E+01  0.249998443E+01
   C  0.759202998E+00  0.131417535E+01  0.249997906E+01
   C -0.137109889E+01 -0.297476943E-02  0.249997996E+01
   C  0.128736126E+01  0.953464623E-01  0.249999310E+01
   H -0.159647897E+01  0.262260170E+01  0.249985155E+01
   H  0.141701521E+01  0.261081943E+01  0.249988046E+01
   H -0.293805898E+01 -0.136305612E+00  0.249987985E+01
   H  0.121706614E+01  0.614253569E+01  0.249987345E+01
  Xx  0.152958648E+02  0.636803235E+01  0.249996503E+01
    11
 # iter =  3250  time[fs]= 3.25000
   N -0.658324577E+00 -0.125738855E+01  0.249998482E+01
   N -0.178207154E+02  0.130346350E+03  0.249997605E+01
   C -0.735868796E+00  0.129387441E+01  0.249998306E+01
   C  0.767175075E+00  0.132636408E+01  0.249997670E+01
   C -0.138079217E+01 -0.327192257E-02  0.249997669E+01
   C  0.128907391E+01  0.973350251E-01  0.249999244E+01
   H -0.165317915E+01  0.270441084E+01  0.249982808E+01
   H  0.143947939E+01  0.268499873E+01  0.249986995E+01
   H -0.303440266E+01 -0.146207774E+00  0.249985159E+01
   H  0.109329403E+01  0.683900333E+01  0.249985125E+01
  Xx  0.167126828E+02  0.708564513E+01  0.249995990E+01
    11
 # iter =  3500  time[fs]= 3.50000
   N -0.655607518E+00 -0.127359185E+01  0.249998278E+01
   N -0.194452458E+02  0.141900622E+03  0.249997370E+01
   C -0.742132516E+00  0.130218864E+01  0.249998170E+01
   C  0.775297515E+00  0.133933692E+01  0.249997455E+01
   C -0.139132573E+01 -0.352306751E-02  0.249997341E+01
   C  0.129175609E+01  0.981746356E-01  0.249999189E+01
   H -0.171246146E+01  0.279036923E+01  0.249980383E+01
   H  0.146464825E+01  0.276429824E+01  0.249985858E+01
   H -0.313589171E+01 -0.156610998E+00  0.249982115E+01
   H  0.969604798E+00  0.753639889E+01  0.249982577E+01
  Xx  0.181296680E+02  0.780331823E+01  0.249995477E+01
    11
 # iter =  3750  time[fs]= 3.75000
   N -0.652818223E+00 -0.129062966E+01  0.249998039E+01
   N -0.210697762E+02  0.153454893E+03  0.249997136E+01
   C -0.748856629E+00  0.131124376E+01  0.249998029E+01
   C  0.783860740E+00  0.135332020E+01  0.249997320E+01
   C -0.140256095E+01 -0.415834213E-02  0.249996958E+01
   C  0.129545194E+01  0.978619088E-01  0.249999102E+01
   H -0.177461424E+01  0.288000024E+01  0.249977590E+01
   H  0.149207172E+01  0.284728217E+01  0.249984528E+01
   H -0.324182761E+01 -0.167509818E+00  0.249978799E+01
   H  0.845959608E+00  0.823456445E+01  0.249979909E+01
  Xx  0.195467952E+02  0.852104332E+01  0.249994965E+01
    11
 # iter =  4000  time[fs]= 4.00000
   N -0.649949371E+00 -0.130848195E+01  0.249997867E+01
   N -0.226943066E+02  0.165009165E+03  0.249996901E+01
   C -0.755933249E+00  0.132082044E+01  0.249997890E+01
   C  0.792580604E+00  0.136865343E+01  0.249997274E+01
   C -0.141462929E+01 -0.482121507E-02  0.249996548E+01
   C  0.130016327E+01  0.961673324E-01  0.249998969E+01
   H -0.183892656E+01  0.297283247E+01  0.249975002E+01
   H  0.152132882E+01  0.293390778E+01  0.249983206E+01
   H -0.335161137E+01 -0.178945807E+00  0.249975250E+01
   H  0.722294729E+00  0.893339705E+01  0.249977124E+01
  Xx  0.209640447E+02  0.923881396E+01  0.249994452E+01
    11
 # iter =  4250  time[fs]= 4.25000
   N -0.646996286E+00 -0.132705792E+01  0.249997685E+01
   N -0.243188370E+02  0.176563436E+03  0.249996667E+01
   C -0.763410007E+00  0.133102050E+01  0.249997814E+01
   C  0.801708018E+00  0.138482954E+01  0.249997252E+01
   C -0.142730822E+01 -0.568686546E-02  0.249996167E+01
   C  0.130563843E+01  0.934078788E-01  0.249998831E+01
   H -0.190530584E+01  0.306839930E+01  0.249972791E+01
   H  0.155283921E+01  0.302450299E+01  0.249981476E+01
   H -0.346544550E+01 -0.190875850E+00  0.249971342E+01
   H  0.598627515E+00  0.963282226E+01  0.249974249E+01
  Xx  0.223814003E+02  0.995662436E+01  0.249993939E+01
    11
 # iter =  4500  time[fs]= 4.50000
   N -0.643917662E+00 -0.134633293E+01  0.249997461E+01
   N -0.259433674E+02  0.188117708E+03  0.249996432E+01
   C -0.771054835E+00  0.134208453E+01  0.249997770E+01
   C  0.810959833E+00  0.140193696E+01  0.249997154E+01
   C -0.144075638E+01 -0.691126936E-02  0.249995789E+01
   C  0.131194663E+01  0.896172853E-01  0.249998743E+01
   H -0.197334232E+01  0.316653055E+01  0.249970445E+01
   H  0.158632811E+01  0.311841608E+01  0.249979576E+01
   H -0.358281926E+01 -0.203180473E+00  0.249966926E+01
   H  0.474930833E+00  0.103328084E+02  0.249971257E+01
  Xx  0.237988490E+02  0.106744701E+02  0.249993427E+01
    11
 # iter =  4750  time[fs]= 4.75000
   N -0.640769573E+00 -0.136644370E+01  0.249997263E+01
   N -0.275678978E+02  0.199671979E+03  0.249996198E+01
   C -0.778838061E+00  0.135379003E+01  0.249997809E+01
   C  0.820388261E+00  0.142007818E+01  0.249997058E+01
   C -0.145497861E+01 -0.833061907E-02  0.249995337E+01
   C  0.131913235E+01  0.849145904E-01  0.249998700E+01
   H -0.204320706E+01  0.326707436E+01  0.249967878E+01
   H  0.162137280E+01  0.321475976E+01  0.249977721E+01
   H -0.370337582E+01 -0.215942240E+00  0.249962530E+01
   H  0.351204234E+00  0.110332944E+02  0.249968103E+01
  Xx  0.252163797E+02  0.113923475E+02  0.249992914E+01
    11
 # iter =  5000  time[fs]= 5.00000
   N -0.637453015E+00 -0.138730031E+01  0.249997044E+01
   N -0.291924281E+02  0.211226251E+03  0.249995963E+01
   C -0.786752958E+00  0.136613803E+01  0.249997877E+01
   C  0.829888472E+00  0.143909385E+01  0.249996924E+01
   C -0.146990687E+01 -0.985222928E-02  0.249994850E+01
   C  0.132699153E+01  0.792009697E-01  0.249998571E+01
   H -0.211448194E+01  0.336974877E+01  0.249965217E+01
   H  0.165808448E+01  0.331393497E+01  0.249975470E+01
   H -0.382695294E+01 -0.229142595E+00  0.249957867E+01
   H  0.227441599E+00  0.117342260E+02  0.249964835E+01
  Xx  0.266339835E+02  0.121102528E+02  0.249992402E+01
    11
 # iter =  5250  time[fs]= 5.25000
   N -0.633942163E+00 -0.140878949E+01  0.249996826E+01
   N -0.308169585E+02  0.222780522E+03  0.249995729E+01
   C -0.794705747E+00  0.137901923E+01  0.249997952E+01
   C  0.839675743E+00  0.145891749E+01  0.249996783E+01
   C -0.148559387E+01 -0.115035425E-01  0.249994327E+01
   C  0.133538636E+01  0.727394291E-01  0.249998395E+01
   H -0.218717891E+01  0.347438591E+01  0.249962637E+01
   H  0.169623199E+01  0.341566631E+01  0.249973282E+01
   H -0.395340122E+01 -0.242758440E+00  0.249952840E+01
   H  0.103642601E+00  0.124355496E+02  0.249961456E+01
  Xx  0.280516521E+02  0.128281840E+02  0.249991889E+01
    11
 # iter =  5500  time[fs]= 5.50000
   N -0.630314185E+00 -0.143090931E+01  0.249996630E+01
   N -0.324414889E+02  0.234334794E+03  0.249995494E+01
   C -0.802997342E+00  0.139244766E+01  0.249998022E+01
   C  0.849798605E+00  0.147967429E+01  0.249996714E+01
   C -0.150192953E+01 -0.135114651E-01  0.249993789E+01
   C  0.134443095E+01  0.653372425E-01  0.249998254E+01
   H -0.226120257E+01  0.358089981E+01  0.249959906E+01
   H  0.173585395E+01  0.351988096E+01  0.249971162E+01
   H -0.408236411E+01 -0.256920820E+00  0.249947569E+01
   H -0.201956704E-01  0.131372299E+02  0.249958012E+01
  Xx  0.294693799E+02  0.135461377E+02  0.249991376E+01
    11
 # iter =  5750  time[fs]= 5.75000
   N -0.626694036E+00 -0.145352056E+01  0.249996408E+01
   N -0.340660193E+02  0.245889065E+03  0.249995260E+01
   C -0.811474522E+00  0.140646399E+01  0.249998105E+01
   C  0.860112137E+00  0.150131763E+01  0.249996703E+01
   C -0.151878260E+01 -0.158687513E-01  0.249993143E+01
   C  0.135413462E+01  0.569989935E-01  0.249998109E+01
   H -0.233641137E+01  0.368900843E+01  0.249957299E+01
   H  0.177679785E+01  0.362635656E+01  0.249968987E+01
   H -0.421359149E+01 -0.271428583E+00  0.249941979E+01
   H -0.144074968E+00  0.138392310E+02  0.249954566E+01
  Xx  0.308871610E+02  0.142641133E+02  0.249990864E+01
    11
 # iter =  6000  time[fs]= 6.00000
   N -0.623078048E+00 -0.147651203E+01  0.249996242E+01
   N -0.356905497E+02  0.257443337E+03  0.249995025E+01
   C -0.820174253E+00  0.142106869E+01  0.249998230E+01
   C  0.870688777E+00  0.152353394E+01  0.249996672E+01
   C -0.153613318E+01 -0.187649142E-01  0.249992469E+01
   C  0.136437830E+01  0.479615895E-01  0.249997965E+01
   H -0.241261581E+01  0.379856901E+01  0.249954528E+01
   H  0.181914280E+01  0.373490117E+01  0.249966772E+01
   H -0.434697263E+01 -0.286395954E+00  0.249936459E+01
   H -0.267992628E+00  0.145415216E+02  0.249951121E+01
  Xx  0.323049900E+02  0.149821072E+02  0.249990351E+01
    11
 # iter =  6250  time[fs]= 6.25000
   N -0.619424305E+00 -0.149992307E+01  0.249996082E+01
   N -0.373150801E+02  0.268997609E+03  0.249994791E+01
   C -0.828983583E+00  0.143643643E+01  0.249998417E+01
   C  0.881565459E+00  0.154617073E+01  0.249996604E+01
   C -0.155408853E+01 -0.221691052E-01  0.249991779E+01
   C  0.137521801E+01  0.384841298E-01  0.249997871E+01
   H -0.248972740E+01  0.390940564E+01  0.249951818E+01
   H  0.186253707E+01  0.384524882E+01  0.249964047E+01
   H -0.448242678E+01 -0.301708943E+00  0.249930575E+01
   H -0.391946142E+00  0.152440719E+02  0.249947676E+01
  Xx  0.337228582E+02  0.157001189E+02  0.249989838E+01
    11
 # iter =  6500  time[fs]= 6.50000
   N -0.615692628E+00 -0.152376051E+01  0.249995886E+01
   N -0.389396105E+02  0.280551880E+03  0.249994556E+01
   C -0.837935118E+00  0.145239575E+01  0.249998678E+01
   C  0.892732034E+00  0.156924743E+01  0.249996478E+01
   C -0.157260448E+01 -0.258510441E-01  0.249991070E+01
   C  0.138654041E+01  0.285089259E-01  0.249997822E+01
   H -0.256780509E+01  0.402140300E+01  0.249948957E+01
   H  0.190713185E+01  0.395733899E+01  0.249961421E+01
   H -0.461981847E+01 -0.317393906E+00  0.249924611E+01
   H -0.515934982E+00  0.159468609E+02  0.249944230E+01
  Xx  0.351407620E+02  0.164181484E+02  0.249989326E+01
    11
 # iter =  6750  time[fs]= 6.75000
   N -0.611922970E+00 -0.154798021E+01  0.249995683E+01
   N -0.405641409E+02  0.292106152E+03  0.249994322E+01
   C -0.846962454E+00  0.146887713E+01  0.249998981E+01
   C  0.904159850E+00  0.159264973E+01  0.249996410E+01
   C -0.159169924E+01 -0.300190392E-01  0.249990280E+01
   C  0.139826420E+01  0.181703871E-01  0.249997779E+01
   H -0.264667351E+01  0.413450810E+01  0.249945365E+01
   H  0.195269174E+01  0.407128634E+01  0.249958227E+01
   H -0.475892916E+01 -0.333481794E+00  0.249918616E+01
   H -0.639958693E+00  0.166498708E+02  0.249940785E+01
  Xx  0.365587014E+02  0.171361956E+02  0.249988813E+01
    11
 # iter =  7000  time[fs]= 7.00000
   N -0.608105622E+00 -0.157257251E+01  0.249995445E+01
   N -0.421886713E+02  0.303660423E+03  0.249994087E+01
   C -0.856168545E+00  0.148585005E+01  0.249999375E+01
   C  0.915925022E+00  0.161639518E+01  0.249996277E+01
   C -0.161128374E+01 -0.344325599E-01  0.249989419E+01
   C  0.141042249E+01  0.760044352E-02  0.249997710E+01
   H -0.272625261E+01  0.424862945E+01  0.249941614E+01
   H  0.199920534E+01  0.418679404E+01  0.249955139E+01
   H -0.489957683E+01 -0.349776977E+00  0.249912258E+01
   H -0.764015961E+00  0.173530799E+02  0.249937339E+01
  Xx  0.379766763E+02  0.178542600E+02  0.249988300E+01
    11
 # iter =  7250  time[fs]= 7.25000
   N -0.604183892E+00 -0.159763259E+01  0.249995223E+01
   N -0.438132017E+02  0.315214695E+03  0.249993853E+01
   C -0.865582231E+00  0.150323963E+01  0.249999834E+01
   C  0.928043512E+00  0.164051404E+01  0.249996125E+01
   C -0.163130666E+01 -0.390096752E-01  0.249988535E+01
   C  0.142299366E+01 -0.327562449E-02  0.249997681E+01
   H -0.280660055E+01  0.436373538E+01  0.249938203E+01
   H  0.204666704E+01  0.430378581E+01  0.249951651E+01
   H -0.504182727E+01 -0.366436871E+00  0.249905979E+01
   H -0.888104879E+00  0.180564723E+02  0.249933894E+01
  Xx  0.393946866E+02  0.185723349E+02  0.249987788E+01
    11
 # iter =  7500  time[fs]= 7.50000
   N -0.600156241E+00 -0.162309458E+01  0.249994959E+01
   N -0.454377321E+02  0.326768966E+03  0.249993618E+01
   C -0.875224402E+00  0.152095553E+01  0.250000319E+01
   C  0.940422500E+00  0.166503973E+01  0.249996020E+01
   C -0.165172052E+01 -0.436901489E-01  0.249987696E+01
   C  0.143587451E+01 -0.145592742E-01  0.249997593E+01
   H -0.288748891E+01  0.447972768E+01  0.249934672E+01
   H  0.209502528E+01  0.442224376E+01  0.249948134E+01
   H -0.518547384E+01 -0.383340733E+00  0.249900099E+01
   H -0.101222436E+01  0.187600353E+02  0.249930449E+01
  Xx  0.408127326E+02  0.192904188E+02  0.249987275E+01
    11
 # iter =  7750  time[fs]= 7.75000
   N -0.595977963E+00 -0.164902469E+01  0.249994707E+01
   N -0.470622625E+02  0.338323238E+03  0.249993384E+01
   C -0.885139238E+00  0.153881397E+01  0.250000874E+01
   C  0.953215342E+00  0.168990322E+01  0.249995917E+01
   C -0.167252438E+01 -0.481821400E-01  0.249986778E+01
   C  0.144915407E+01 -0.261111000E-01  0.249997422E+01
   H -0.296905204E+01  0.459656684E+01  0.249931051E+01
   H  0.214423157E+01  0.454198901E+01  0.249944722E+01
   H -0.533044333E+01 -0.400458340E+00  0.249893908E+01
   H -0.113637305E+01  0.194637565E+02  0.249927003E+01
  Xx  0.422308110E+02  0.200085115E+02  0.249986762E+01
    11
 # iter =  8000  time[fs]= 8.00000
   N -0.591746784E+00 -0.167546503E+01  0.249994489E+01
   N -0.486867929E+02  0.349877509E+03  0.249993150E+01
   C -0.895348448E+00  0.155685554E+01  0.250001386E+01
   C  0.966204771E+00  0.171518938E+01  0.249995914E+01
   C -0.169372905E+01 -0.525740239E-01  0.249985833E+01
   C  0.146280399E+01 -0.380062113E-01  0.249997180E+01
   H -0.305121618E+01  0.471415623E+01  0.249927457E+01
   H  0.219405892E+01  0.466295334E+01  0.249940939E+01
   H -0.547658753E+01 -0.417832153E+00  0.249887362E+01
   H -0.126055045E+01  0.201676251E+02  0.249923558E+01
  Xx  0.436489087E+02  0.207266130E+02  0.249986250E+01
    11
 # iter =  8250  time[fs]= 8.25000
   N -0.587418651E+00 -0.170236578E+01  0.249994259E+01
   N -0.503113233E+02  0.361431781E+03  0.249992915E+01
   C -0.905760930E+00  0.157519471E+01  0.250001965E+01
   C  0.979488359E+00  0.174081324E+01  0.249995868E+01
   C -0.171520624E+01 -0.570223886E-01  0.249984902E+01
   C  0.147672612E+01 -0.501846067E-01  0.249996978E+01
   H -0.313394501E+01  0.483251015E+01  0.249923652E+01
   H  0.224460089E+01  0.478508309E+01  0.249937079E+01
   H -0.562381561E+01 -0.435416703E+00  0.249880827E+01
   H -0.138475422E+01  0.208716309E+02  0.249920113E+01
  Xx  0.450670242E+02  0.214447235E+02  0.249985737E+01
    11
 # iter =  8500  time[fs]= 8.50000
   N -0.582995994E+00 -0.172968255E+01  0.249994052E+01
   N -0.519358537E+02  0.372986052E+03  0.249992681E+01
   C -0.916368579E+00  0.159384110E+01  0.250002607E+01
   C  0.993044908E+00  0.176659918E+01  0.249995710E+01
   C -0.173705181E+01 -0.614816596E-01  0.249984006E+01
   C  0.149100191E+01 -0.625528875E-01  0.249996764E+01
   H -0.321712016E+01  0.495150648E+01  0.249919569E+01
   H  0.229588394E+01  0.490837211E+01  0.249933108E+01
   H -0.577219176E+01 -0.453229810E+00  0.249873829E+01
   H -0.150898312E+01  0.215757648E+02  0.249916667E+01
  Xx  0.464851575E+02  0.221628428E+02  0.249985224E+01
    11
 # iter =  8750  time[fs]= 8.75000
   N -0.578458064E+00 -0.175731889E+01  0.249993815E+01
   N -0.535603841E+02  0.384540324E+03  0.249992446E+01
   C -0.927196196E+00  0.161258494E+01  0.250003271E+01
   C  0.100668934E+01  0.179262023E+01  0.249995549E+01
   C -0.175917443E+01 -0.659020124E-01  0.249983056E+01
   C  0.150560518E+01 -0.751401673E-01  0.249996578E+01
   H -0.330079650E+01  0.507116328E+01  0.249915589E+01
   H  0.234769756E+01  0.503268969E+01  0.249928704E+01
   H -0.592150851E+01 -0.471241019E+00  0.249866414E+01
   H -0.163323674E+01  0.222800190E+02  0.249913222E+01
  Xx  0.479033085E+02  0.228809711E+02  0.249984712E+01
    11
 # iter =  9000  time[fs]= 9.00000
   N -0.573832529E+00 -0.178524268E+01  0.249993567E+01
   N -0.551849145E+02  0.396094595E+03  0.249992212E+01
   C -0.938247698E+00  0.163149552E+01  0.250003898E+01
   C  0.102060081E+01  0.181889753E+01  0.249995415E+01
   C -0.178158524E+01 -0.704033775E-01  0.249982148E+01
   C  0.152042299E+01 -0.878898613E-01  0.249996403E+01
   H -0.338496489E+01  0.519152960E+01  0.249911420E+01
   H  0.240012541E+01  0.515804215E+01  0.249924237E+01
   H -0.607174663E+01 -0.489478433E+00  0.249858772E+01
   H -0.175751365E+01  0.229843863E+02  0.249909777E+01
  Xx  0.493214773E+02  0.235991082E+02  0.249984199E+01
    11
 # iter =  9250  time[fs]= 9.25000
   N -0.569148604E+00 -0.181339794E+01  0.249993307E+01
   N -0.568094448E+02  0.407648867E+03  0.249991977E+01
   C -0.949582630E+00  0.165061663E+01  0.250004566E+01
   C  0.103482460E+01  0.184530500E+01  0.249995290E+01
   C -0.180421692E+01 -0.748866760E-01  0.249981209E+01
   C  0.153556686E+01 -0.100816825E+00  0.249996338E+01
   H -0.346953021E+01  0.531245618E+01  0.249907521E+01
   H  0.245315152E+01  0.528426110E+01  0.249919121E+01
   H -0.622292323E+01 -0.507911237E+00  0.249850842E+01
   H -0.188181227E+01  0.236888595E+02  0.249906331E+01
  Xx  0.507396638E+02  0.243172542E+02  0.249983686E+01
    11
 # iter =  9500  time[fs]= 9.50000
   N -0.564347442E+00 -0.184185155E+01  0.249993052E+01
   N -0.584339752E+02  0.419203138E+03  0.249991743E+01
   C -0.961113521E+00  0.166990718E+01  0.250005268E+01
   C  0.104922648E+01  0.187180020E+01  0.249995136E+01
   C -0.182715710E+01 -0.792899602E-01  0.249980237E+01
   C  0.155093309E+01 -0.113780371E+00  0.249996210E+01
   H -0.355454290E+01  0.543398950E+01  0.249903466E+01
   H  0.250669910E+01  0.541133241E+01  0.249914064E+01
   H -0.637491675E+01 -0.526522266E+00  0.249842936E+01
   H -0.200613183E+01  0.243934318E+02  0.249902886E+01
  Xx  0.521578681E+02  0.250354090E+02  0.249983174E+01
    11
 # iter =  9750  time[fs]= 9.75000
   N -0.559464504E+00 -0.187056447E+01  0.249992792E+01
   N -0.600585056E+02  0.430757410E+03  0.249991508E+01
   C -0.972817822E+00  0.168938034E+01  0.250006074E+01
   C  0.106388181E+01  0.189842116E+01  0.249994989E+01
   C -0.185038139E+01 -0.836688250E-01  0.249979353E+01
   C  0.156661775E+01 -0.126844849E+00  0.249996064E+01
   H -0.363997330E+01  0.555606726E+01  0.249899103E+01
   H  0.256073899E+01  0.553921636E+01  0.249908751E+01
   H -0.652772520E+01 -0.545306437E+00  0.249834744E+01
   H -0.213047132E+01  0.250980999E+02  0.249899441E+01
  Xx  0.535760902E+02  0.257535728E+02  0.249982661E+01
    11
 # iter = 10000  time[fs]=10.00000
   N -0.554552094E+00 -0.189956674E+01  0.249992508E+01
   N -0.616830360E+02  0.442311681E+03  0.249991274E+01
   C -0.984627991E+00  0.170898427E+01  0.250006827E+01
   C  0.107865428E+01  0.192537520E+01  0.249994752E+01
   C -0.187388479E+01 -0.879952837E-01  0.249978458E+01
   C  0.158241486E+01 -0.140115797E+00  0.249995999E+01
   H -0.372581913E+01  0.567866419E+01  0.249894348E+01
   H  0.261527501E+01  0.566786572E+01  0.249903292E+01
   H -0.668126984E+01 -0.564236816E+00  0.249826147E+01
   H -0.225482992E+01  0.258028573E+02  0.249895995E+01
  Xx  0.549943300E+02  0.264717454E+02  0.249982148E+01
    11
 # iter = 10250  time[fs]=10.25000
   N -0.549537812E+00 -0.192881853E+01  0.249992198E+01
   N -0.633075664E+02  0.453865953E+03  0.249991039E+01
   C -0.996474606E+00  0.172869943E+01  0.250007649E+01
   C  0.109353049E+01  0.195256328E+01  0.249994442E+01
   C -0.189750555E+01 -0.923661075E-01  0.249977636E+01
   C  0.159850179E+01 -0.153624216E+00  0.249995968E+01
   H -0.381203437E+01  0.580177233E+01  0.249889590E+01
   H  0.267024440E+01  0.579722562E+01  0.249897411E+01
   H -0.683556702E+01 -0.583354571E+00  0.249817423E+01
   H -0.237920667E+01  0.265077016E+02  0.249892550E+01
  Xx  0.564125876E+02  0.271899269E+02  0.249981636E+01
    11
 # iter = 10500  time[fs]=10.50000
   N -0.544440483E+00 -0.195830361E+01  0.249991861E+01
   N -0.649320968E+02  0.465420225E+03  0.249990805E+01
   C -0.100853160E+01  0.174855165E+01  0.250008486E+01
   C  0.110848760E+01  0.197996753E+01  0.249994079E+01
   C -0.192137645E+01 -0.967458470E-01  0.249976767E+01
   C  0.161481793E+01 -0.167297105E+00  0.249995929E+01
   H -0.389861482E+01  0.592536239E+01  0.249884320E+01
   H  0.272563979E+01  0.592730707E+01  0.249891923E+01
   H -0.699053386E+01 -0.602640068E+00  0.249808619E+01
   H -0.250360119E+01  0.272126262E+02  0.249889105E+01
  Xx  0.578308630E+02  0.279081173E+02  0.249981123E+01
    11
 # iter = 10750  time[fs]=10.75000
   N -0.539247053E+00 -0.198809745E+01  0.249991502E+01
   N -0.665566272E+02  0.476974496E+03  0.249990570E+01
   C -0.102076307E+01  0.176846382E+01  0.250009399E+01
   C  0.112359893E+01  0.200755480E+01  0.249993792E+01
   C -0.194540821E+01 -0.101094405E+00  0.249975860E+01
   C  0.163135879E+01 -0.181118421E+00  0.249995799E+01
   H -0.398555828E+01  0.604945452E+01  0.249878981E+01
   H  0.278145181E+01  0.605802979E+01  0.249886433E+01
   H -0.714615183E+01 -0.622083545E+00  0.249799899E+01
   H -0.262801287E+01  0.279176296E+02  0.249885659E+01
  Xx  0.592491561E+02  0.286263166E+02  0.249980610E+01
    11
 # iter = 11000  time[fs]=11.00000
   N -0.533963367E+00 -0.201810554E+01  0.249991175E+01
   N -0.681811576E+02  0.488528768E+03  0.249990336E+01
   C -0.103318583E+01  0.178844887E+01  0.250010409E+01
   C  0.113892785E+01  0.203521864E+01  0.249993541E+01
   C -0.196970044E+01 -0.105394164E+00  0.249974925E+01
   C  0.164816303E+01 -0.194983539E+00  0.249995715E+01
   H -0.407278396E+01  0.617394416E+01  0.249873947E+01
   H  0.283764298E+01  0.618939965E+01  0.249880430E+01
   H -0.730237061E+01 -0.641681458E+00  0.249791049E+01
   H -0.275244115E+01  0.286227053E+02  0.249882214E+01
  Xx  0.606674670E+02  0.293445248E+02  0.249980098E+01
    11
 # iter = 11250  time[fs]=11.25000
   N -0.528616878E+00 -0.204836046E+01  0.249990950E+01
   N -0.698056880E+02  0.500083039E+03  0.249990101E+01
   C -0.104574994E+01  0.180854640E+01  0.250011437E+01
   C  0.115443154E+01  0.206288183E+01  0.249993273E+01
   C -0.199420415E+01 -0.109595388E+00  0.249973977E+01
   C  0.166516412E+01 -0.208872972E+00  0.249995611E+01
   H -0.416035324E+01  0.629887481E+01  0.249868793E+01
   H  0.289425881E+01  0.632144788E+01  0.249874398E+01
   H -0.745918125E+01 -0.661421337E+00  0.249781966E+01
   H -0.287688524E+01  0.293278521E+02  0.249878769E+01
  Xx  0.620857957E+02  0.300627418E+02  0.249979585E+01
    11
 # iter = 11500  time[fs]=11.50000
   N -0.523201134E+00 -0.207881010E+01  0.249990690E+01
   N -0.714302184E+02  0.511637311E+03  0.249989867E+01
   C -0.105838781E+01  0.182878776E+01  0.250012397E+01
   C  0.117011327E+01  0.209067102E+01  0.249992943E+01
   C -0.201898060E+01 -0.113820708E+00  0.249973070E+01
   C  0.168237386E+01 -0.222790576E+00  0.249995482E+01
   H -0.424821525E+01  0.642420828E+01  0.249863443E+01
   H  0.295122376E+01  0.645401300E+01  0.249868377E+01
   H -0.761654559E+01 -0.681297087E+00  0.249772851E+01
   H -0.300134451E+01  0.300330662E+02  0.249875323E+01
  Xx  0.635041421E+02  0.307809677E+02  0.249979072E+01
    11
 # iter = 11750  time[fs]=11.75000
   N -0.517735494E+00 -0.210943166E+01  0.249990409E+01
   N -0.730547488E+02  0.523191582E+03  0.249989632E+01
   C -0.107115313E+01  0.184906502E+01  0.250013436E+01
   C  0.118589053E+01  0.211859572E+01  0.249992576E+01
   C -0.204393618E+01 -0.117984767E+00  0.249972132E+01
   C  0.169981367E+01 -0.236745068E+00  0.249995336E+01
   H -0.433638161E+01  0.654991135E+01  0.249858032E+01
   H  0.300851219E+01  0.658716574E+01  0.249862052E+01
   H -0.777442392E+01 -0.701282789E+00  0.249763633E+01
   H -0.312581825E+01  0.307383426E+02  0.249871878E+01
  Xx  0.649225025E+02  0.314992026E+02  0.249978560E+01
    11
 # iter = 12000  time[fs]=12.00000
   N -0.512262983E+00 -0.214022577E+01  0.249990127E+01
   N -0.746792792E+02  0.534745854E+03  0.249989398E+01
   C -0.108405021E+01  0.186937786E+01  0.250014425E+01
   C  0.120178802E+01  0.214660452E+01  0.249992312E+01
   C -0.206902405E+01 -0.122130650E+00  0.249971186E+01
   C  0.171739863E+01 -0.250778912E+00  0.249995230E+01
   H -0.442480123E+01  0.667599366E+01  0.249852769E+01
   H  0.306613525E+01  0.672085204E+01  0.249855511E+01
   H -0.793284498E+01 -0.721400204E+00  0.249754403E+01
   H -0.325030629E+01  0.314436811E+02  0.249868433E+01
  Xx  0.663408640E+02  0.322174458E+02  0.249978047E+01
    11
 # iter = 12250  time[fs]=12.25000
   N -0.506782838E+00 -0.217126757E+01  0.249989831E+01
   N -0.763038096E+02  0.546300125E+03  0.249989163E+01
   C -0.109703903E+01  0.188976510E+01  0.250015484E+01
   C  0.121788648E+01  0.217482834E+01  0.249992005E+01
   C -0.209430378E+01 -0.126245099E+00  0.249970212E+01
   C  0.173520869E+01 -0.264873196E+00  0.249995127E+01
   H -0.451351089E+01  0.680240979E+01  0.249847216E+01
   H  0.312405856E+01  0.685503686E+01  0.249849082E+01
   H -0.809178291E+01 -0.741645156E+00  0.249744925E+01
   H -0.337480780E+01  0.321490814E+02  0.249864987E+01
  Xx  0.677592255E+02  0.329356913E+02  0.249977534E+01
    11
 # iter = 12500  time[fs]=12.50000
   N -0.501306658E+00 -0.220253972E+01  0.249989493E+01
   N -0.779283400E+02  0.557854397E+03  0.249988929E+01
   C -0.111009091E+01  0.191025294E+01  0.250016498E+01
   C  0.123403952E+01  0.220313462E+01  0.249991695E+01
   C -0.211977041E+01 -0.130295151E+00  0.249969223E+01
   C  0.175320833E+01 -0.279055286E+00  0.249995022E+01
   H -0.460248856E+01  0.692920387E+01  0.249841622E+01
   H  0.318231541E+01  0.698973284E+01  0.249842706E+01
   H -0.825124980E+01 -0.762025279E+00  0.249735263E+01
   H -0.349932259E+01  0.328545373E+02  0.249861542E+01
  Xx  0.691775871E+02  0.336539367E+02  0.249977022E+01
    11
 # iter = 12750  time[fs]=12.75000
   N -0.495821300E+00 -0.223403608E+01  0.249989263E+01
   N -0.795528704E+02  0.569408668E+03  0.249988694E+01
   C -0.112324496E+01  0.193081500E+01  0.250017532E+01
   C  0.125039875E+01  0.223155612E+01  0.249991342E+01
   C -0.214540560E+01 -0.134392355E+00  0.249968313E+01
   C  0.177135796E+01 -0.293383564E+00  0.249994950E+01
   H -0.469172812E+01  0.705635133E+01  0.249836269E+01
   H  0.324090059E+01  0.712490983E+01  0.249836149E+01
   H -0.841125609E+01 -0.782564918E+00  0.249725564E+01
   H -0.362384989E+01  0.335600465E+02  0.249858097E+01
  Xx  0.705959486E+02  0.343721822E+02  0.249976509E+01
    11
 # iter = 13000  time[fs]=13.00000
   N -0.490356398E+00 -0.226569306E+01  0.249989044E+01
   N -0.811774008E+02  0.580962940E+03  0.249988460E+01
   C -0.113652053E+01  0.195157348E+01  0.250018632E+01
   C  0.126689060E+01  0.226014300E+01  0.249990953E+01
   C -0.217120616E+01 -0.138544762E+00  0.249967224E+01
   C  0.178970929E+01 -0.307810188E+00  0.249994756E+01
   H -0.478119420E+01  0.718382994E+01  0.249830935E+01
   H  0.329975396E+01  0.726055949E+01  0.249829458E+01
   H -0.857179732E+01 -0.803238482E+00  0.249715771E+01
   H -0.374838941E+01  0.342656090E+02  0.249854651E+01
  Xx  0.720143101E+02  0.350904276E+02  0.249975996E+01
    11
 # iter = 13250  time[fs]=13.25000
   N -0.484926418E+00 -0.229747216E+01  0.249988837E+01
   N -0.828019311E+02  0.592517211E+03  0.249988225E+01
   C -0.114979132E+01  0.197246231E+01  0.250019729E+01
   C  0.128341351E+01  0.228885946E+01  0.249990608E+01
   C -0.219712701E+01 -0.142765386E+00  0.249966233E+01
   C  0.180819119E+01 -0.322307026E+00  0.249994531E+01
   H -0.487088136E+01  0.731161435E+01  0.249825294E+01
   H  0.335886501E+01  0.739661522E+01  0.249822782E+01
   H -0.873287028E+01 -0.824041779E+00  0.249706001E+01
   H -0.387294095E+01  0.349712248E+02  0.249851206E+01
  Xx  0.734326716E+02  0.358086730E+02  0.249975484E+01
    11
 # iter = 13500  time[fs]=13.50000
   N -0.479534676E+00 -0.232933672E+01  0.249988686E+01
   N -0.844264615E+02  0.604071483E+03  0.249987991E+01
   C -0.116315670E+01  0.199348518E+01  0.250020931E+01
   C  0.129997341E+01  0.231770380E+01  0.249990246E+01
   C -0.222321664E+01 -0.147113174E+00  0.249965141E+01
   C  0.182687180E+01 -0.336919127E+00  0.249994433E+01
   H -0.496081342E+01  0.743972470E+01  0.249819617E+01
   H  0.341828878E+01  0.753315386E+01  0.249816033E+01
   H -0.889444118E+01 -0.844983072E+00  0.249696237E+01
   H -0.399750369E+01  0.356768938E+02  0.249847761E+01
  Xx  0.748510331E+02  0.365269185E+02  0.249974971E+01
    11
 # iter = 13750  time[fs]=13.75000
   N -0.474177251E+00 -0.236129249E+01  0.249988504E+01
   N -0.860509919E+02  0.615625754E+03  0.249987757E+01
   C -0.117659947E+01  0.201467630E+01  0.250022105E+01
   C  0.131660547E+01  0.234670159E+01  0.249989885E+01
   C -0.224942653E+01 -0.151539110E+00  0.249963890E+01
   C  0.184570137E+01 -0.351669002E+00  0.249994219E+01
   H -0.505096740E+01  0.756815496E+01  0.249814103E+01
   H  0.347798365E+01  0.767010148E+01  0.249809235E+01
   H -0.905652908E+01 -0.866070216E+00  0.249686473E+01
   H -0.412207753E+01  0.363826162E+02  0.249844315E+01
  Xx  0.762693946E+02  0.372451639E+02  0.249974459E+01
    11
 # iter = 14000  time[fs]=14.00000
   N -0.468833942E+00 -0.239334927E+01  0.249988388E+01
   N -0.876755223E+02  0.627180026E+03  0.249987522E+01
   C -0.119002551E+01  0.203597412E+01  0.250023417E+01
   C  0.133330745E+01  0.237579730E+01  0.249989530E+01
   C -0.227576713E+01 -0.156025850E+00  0.249962720E+01
   C  0.186465527E+01 -0.366468264E+00  0.249994087E+01
   H -0.514135248E+01  0.769690172E+01  0.249808425E+01
   H  0.353793421E+01  0.780743611E+01  0.249802248E+01
   H -0.921913533E+01 -0.887298221E+00  0.249676568E+01
   H -0.424666248E+01  0.370883918E+02  0.249840870E+01
  Xx  0.776877561E+02  0.379634094E+02  0.249973946E+01
    11
 # iter = 14250  time[fs]=14.25000
   N -0.463500740E+00 -0.242555158E+01  0.249988225E+01
   N -0.893000527E+02  0.638734297E+03  0.249987288E+01
   C -0.120357852E+01  0.205743930E+01  0.250024626E+01
   C  0.135013103E+01  0.240501103E+01  0.249989088E+01
   C -0.230223814E+01 -0.160588792E+00  0.249961535E+01
   C  0.188374870E+01 -0.381411975E+00  0.249993946E+01
   H -0.523195582E+01  0.782596486E+01  0.249802645E+01
   H  0.359817193E+01  0.794522230E+01  0.249795142E+01
   H -0.938223787E+01 -0.908660968E+00  0.249666530E+01
   H -0.437125852E+01  0.377942208E+02  0.249837425E+01
  Xx  0.791061176E+02  0.386816548E+02  0.249973433E+01
    11
 # iter = 14500  time[fs]=14.50000
   N -0.458213884E+00 -0.245795053E+01  0.249988162E+01
   N -0.909245831E+02  0.650288569E+03  0.249987053E+01
   C -0.121719733E+01  0.207894080E+01  0.250025753E+01
   C  0.136701208E+01  0.243436336E+01  0.249988665E+01
   C -0.232886726E+01 -0.165244581E+00  0.249960369E+01
   C  0.190296262E+01 -0.396410865E+00  0.249993816E+01
   H -0.532280241E+01  0.795534426E+01  0.249796844E+01
   H  0.365869108E+01  0.808339905E+01  0.249788118E+01
   H -0.954581367E+01 -0.930158628E+00  0.249656382E+01
   H -0.449586538E+01  0.385001015E+02  0.249833979E+01
  Xx  0.805244791E+02  0.393999002E+02  0.249972921E+01
    11
 # iter = 14750  time[fs]=14.75000
   N -0.452988687E+00 -0.249052169E+01  0.249988096E+01
   N -0.925491135E+02  0.661842841E+03  0.249986819E+01
   C -0.123085933E+01  0.210055592E+01  0.250026998E+01
   C  0.138397818E+01  0.246385425E+01  0.249988230E+01
   C -0.235559321E+01 -0.169928567E+00  0.249959217E+01
   C  0.192235324E+01 -0.411488774E+00  0.249993735E+01
   H -0.541388758E+01  0.808504155E+01  0.249790981E+01
   H  0.371949367E+01  0.822199212E+01  0.249781041E+01
   H -0.970986518E+01 -0.951787065E+00  0.249646123E+01
   H -0.462048138E+01  0.392060209E+02  0.249830534E+01
  Xx  0.819428406E+02  0.401181457E+02  0.249972408E+01
    11
 # iter = 15000  time[fs]=15.00000
   N -0.447821341E+00 -0.252322861E+01  0.249988071E+01
   N -0.941736439E+02  0.673397112E+03  0.249986584E+01
   C -0.124458011E+01  0.212226844E+01  0.250028105E+01
   C  0.140103796E+01  0.249344974E+01  0.249987766E+01
   C -0.238248619E+01 -0.174685702E+00  0.249958041E+01
   C  0.194191455E+01 -0.426638819E+00  0.249993619E+01
   H -0.550521959E+01  0.821507011E+01  0.249785116E+01
   H  0.378058855E+01  0.836100484E+01  0.249773808E+01
   H -0.987437520E+01 -0.973548382E+00  0.249635753E+01
   H -0.474510627E+01  0.399119758E+02  0.249827089E+01
  Xx  0.833612022E+02  0.408363911E+02  0.249971895E+01
    11
 # iter = 15250  time[fs]=15.25000
   N -0.442706981E+00 -0.255602452E+01  0.249987984E+01
   N -0.957981743E+02  0.684951384E+03  0.249986350E+01
   C -0.125834448E+01  0.214407063E+01  0.250029441E+01
   C  0.141819188E+01  0.252318518E+01  0.249987310E+01
   C -0.240948035E+01 -0.179498377E+00  0.249956866E+01
   C  0.196161620E+01 -0.441885928E+00  0.249993431E+01
   H -0.559682071E+01  0.834544988E+01  0.249779327E+01
   H  0.384198501E+01  0.850044138E+01  0.249766619E+01
   H -0.100393263E+02 -0.995443067E+00  0.249625342E+01
   H -0.486974003E+01  0.406179663E+02  0.249823643E+01
  Xx  0.847795637E+02  0.415546366E+02  0.249971383E+01
    11
 # iter = 15500  time[fs]=15.50000
   N -0.437655995E+00 -0.258885890E+01  0.249987912E+01
   N -0.974227047E+02  0.696505655E+03  0.249986115E+01
   C -0.127224632E+01  0.216591716E+01  0.250030676E+01
   C  0.143545085E+01  0.255304727E+01  0.249986891E+01
   C -0.243662390E+01 -0.184365657E+00  0.249955688E+01
   C  0.198148615E+01 -0.457252086E+00  0.249993307E+01
   H -0.568868552E+01  0.847615944E+01  0.249773578E+01
   H  0.390368240E+01  0.864033201E+01  0.249759448E+01
   H -0.102046965E+02 -0.101746878E+01  0.249614872E+01
   H -0.499438268E+01  0.413239923E+02  0.249820198E+01
  Xx  0.861979252E+02  0.422728820E+02  0.249970870E+01
    11
 # iter = 15750  time[fs]=15.75000
   N -0.432650388E+00 -0.262174836E+01  0.249987844E+01
   N -0.990472351E+02  0.708059927E+03  0.249985881E+01
   C -0.128621935E+01  0.218784505E+01  0.250032011E+01
   C  0.145281574E+01  0.258300976E+01  0.249986486E+01
   C -0.246390189E+01 -0.189282968E+00  0.249954477E+01
   C  0.200146084E+01 -0.472731771E+00  0.249993174E+01
   H -0.578081856E+01  0.860721589E+01  0.249767793E+01
   H  0.396568020E+01  0.878066322E+01  0.249752212E+01
   H -0.103704871E+02 -0.103962373E+01  0.249604292E+01
   H -0.511903421E+01  0.420300538E+02  0.249816753E+01
  Xx  0.876162867E+02  0.429911274E+02  0.249970357E+01
    11
 # iter = 16000  time[fs]=16.00000
   N -0.427693630E+00 -0.265473298E+01  0.249987728E+01
   N -0.100671765E+03  0.719614198E+03  0.249985646E+01
   C -0.130021180E+01  0.220990620E+01  0.250033290E+01
   C  0.147030186E+01  0.261305353E+01  0.249986107E+01
   C -0.249129179E+01 -0.194262128E+00  0.249953269E+01
   C  0.202157706E+01 -0.488244700E+00  0.249992990E+01
   H -0.587320662E+01  0.873862118E+01  0.249761985E+01
   H  0.402797036E+01  0.892140122E+01  0.249744939E+01
   H -0.105367040E+02 -0.106190642E+01  0.249593600E+01
   H -0.524369462E+01  0.427361508E+02  0.249813307E+01
  Xx  0.890346482E+02  0.437093729E+02  0.249969845E+01
    11
 # iter = 16250  time[fs]=16.25000
   N -0.422799658E+00 -0.268783989E+01  0.249987693E+01
   N -0.102296296E+03  0.731168470E+03  0.249985412E+01
   C -0.131425858E+01  0.223208025E+01  0.250034581E+01
   C  0.148791371E+01  0.264315465E+01  0.249985683E+01
   C -0.251883284E+01 -0.199327176E+00  0.249952023E+01
   C  0.204181175E+01 -0.503849697E+00  0.249992800E+01
   H -0.596585541E+01  0.887037159E+01  0.249756180E+01
   H  0.409054623E+01  0.906254656E+01  0.249737594E+01
   H -0.107033301E+02 -0.108431525E+01  0.249582811E+01
   H -0.536836391E+01  0.434422833E+02  0.249809862E+01
  Xx  0.904530097E+02  0.444276183E+02  0.249969332E+01
    11
 # iter = 16500  time[fs]=16.50000
   N -0.417971757E+00 -0.272109658E+01  0.249987658E+01
   N -0.103920826E+03  0.742722741E+03  0.249985177E+01
   C -0.132837265E+01  0.225433308E+01  0.250035845E+01
   C  0.150561497E+01  0.267337951E+01  0.249985318E+01
   C -0.254646451E+01 -0.204406190E+00  0.249950872E+01
   C  0.206216122E+01 -0.519503382E+00  0.249992624E+01
   H -0.605876075E+01  0.900245091E+01  0.249750323E+01
   H  0.415339845E+01  0.920409702E+01  0.249730151E+01
   H -0.108703441E+02 -0.110684377E+01  0.249572006E+01
   H -0.549304208E+01  0.441484514E+02  0.249806417E+01
  Xx  0.918713712E+02  0.451458638E+02  0.249968819E+01
    11
 # iter = 16750  time[fs]=16.75000
   N -0.413218244E+00 -0.275447836E+01  0.249987657E+01
   N -0.105545357E+03  0.754277013E+03  0.249984943E+01
   C -0.134255237E+01  0.227661027E+01  0.250037159E+01
   C  0.152337250E+01  0.270368639E+01  0.249984915E+01
   C -0.257420739E+01 -0.209544418E+00  0.249949718E+01
   C  0.208263604E+01 -0.535243370E+00  0.249992408E+01
   H -0.615191931E+01  0.913484836E+01  0.249744386E+01
   H  0.421652485E+01  0.934605171E+01  0.249722597E+01
   H -0.110377258E+02 -0.112948914E+01  0.249561200E+01
   H -0.561772914E+01  0.448546550E+02  0.249802971E+01
  Xx  0.932897327E+02  0.458641092E+02  0.249968307E+01
    11
 # iter = 17000  time[fs]=17.00000
   N -0.408540178E+00 -0.278795848E+01  0.249987695E+01
   N -0.107169887E+03  0.765831284E+03  0.249984708E+01
   C -0.135681704E+01  0.229896155E+01  0.250038377E+01
   C  0.154121795E+01  0.273413581E+01  0.249984481E+01
   C -0.260205781E+01 -0.214668385E+00  0.249948512E+01
   C  0.210321476E+01 -0.551066231E+00  0.249992199E+01
   H -0.624531868E+01  0.926755366E+01  0.249738395E+01
   H  0.427991272E+01  0.948838981E+01  0.249714933E+01
   H -0.112054666E+02 -0.115224644E+01  0.249550351E+01
   H -0.574242501E+01  0.455608942E+02  0.249799526E+01
  Xx  0.947080942E+02  0.465823547E+02  0.249967794E+01
    11
 # iter = 17250  time[fs]=17.25000
   N -0.403917529E+00 -0.282150760E+01  0.249987715E+01
   N -0.108794417E+03  0.777385556E+03  0.249984474E+01
   C -0.137112596E+01  0.232133184E+01  0.250039607E+01
   C  0.155911337E+01  0.276468004E+01  0.249984096E+01
   C -0.262998947E+01 -0.219848270E+00  0.249947401E+01
   C  0.212391670E+01 -0.566940156E+00  0.249991986E+01
   H -0.633895285E+01  0.940056783E+01  0.249732397E+01
   H  0.434355587E+01  0.963109417E+01  0.249707206E+01
   H -0.113735631E+02 -0.117511528E+01  0.249539486E+01
   H -0.586712817E+01  0.462671688E+02  0.249796080E+01
  Xx  0.961264557E+02  0.473006001E+02  0.249967281E+01
    11
 # iter = 17500  time[fs]=17.50000
   N -0.399343333E+00 -0.285513605E+01  0.249987756E+01
   N -0.110418948E+03  0.788939827E+03  0.249984239E+01
   C -0.138548639E+01  0.234379557E+01  0.250040848E+01
   C  0.157708719E+01  0.279529127E+01  0.249983670E+01
   C -0.265806497E+01 -0.225030176E+00  0.249946263E+01
   C  0.214472854E+01 -0.582885647E+00  0.249991775E+01
   H -0.643281439E+01  0.953388525E+01  0.249726399E+01
   H  0.440744790E+01  0.977414572E+01  0.249699394E+01
   H -0.115420135E+02 -0.119809270E+01  0.249528586E+01
   H -0.599183799E+01  0.469734790E+02  0.249792635E+01
  Xx  0.975448173E+02  0.480188455E+02  0.249966769E+01
    11
 # iter = 17750  time[fs]=17.75000
   N -0.394806459E+00 -0.288886914E+01  0.249987834E+01
   N -0.112043478E+03  0.800494099E+03  0.249984005E+01
   C -0.139985051E+01  0.236636282E+01  0.250042063E+01
   C  0.159514394E+01  0.282598501E+01  0.249983231E+01
   C -0.268625662E+01 -0.230239376E+00  0.249945205E+01
   C  0.216566452E+01 -0.598879443E+00  0.249991527E+01
   H -0.652689855E+01  0.966749984E+01  0.249720401E+01
   H  0.447158344E+01  0.991753454E+01  0.249691536E+01
   H -0.117108120E+02 -0.122117575E+01  0.249517680E+01
   H -0.611655447E+01  0.476798247E+02  0.249789190E+01
  Xx  0.989631788E+02  0.487370910E+02  0.249966256E+01
    11
 # iter = 18000  time[fs]=18.00000
   N -0.390293514E+00 -0.292270716E+01  0.249987880E+01
   N -0.113668009E+03  0.812048370E+03  0.249983770E+01
   C -0.141428354E+01  0.238895327E+01  0.250043304E+01
   C  0.161322116E+01  0.285674372E+01  0.249982822E+01
   C -0.271455564E+01 -0.235474343E+00  0.249944196E+01
   C  0.218670734E+01 -0.614919733E+00  0.249991233E+01
   H -0.662120243E+01  0.980140098E+01  0.249714403E+01
   H  0.453595857E+01  0.100612622E+02  0.249683658E+01
   H -0.118799454E+02 -0.124436080E+01  0.249506773E+01
   H -0.624127761E+01  0.483862060E+02  0.249785744E+01
  Xx  0.100381540E+03  0.494553364E+02  0.249965743E+01
    11
 # iter = 18250  time[fs]=18.25000
   N -0.385807825E+00 -0.295666161E+01  0.249987981E+01
   N -0.115292539E+03  0.823602642E+03  0.249983536E+01
   C -0.142874861E+01  0.241164656E+01  0.250044516E+01
   C  0.163141548E+01  0.288757181E+01  0.249982343E+01
   C -0.274299535E+01 -0.240715964E+00  0.249943129E+01
   C  0.220786936E+01 -0.631036397E+00  0.249990996E+01
   H -0.671572108E+01  0.993558166E+01  0.249708405E+01
   H  0.460056776E+01  0.102053205E+02  0.249675779E+01
   H -0.120494036E+02 -0.126764580E+01  0.249495867E+01
   H -0.636600742E+01  0.490926227E+02  0.249782299E+01
  Xx  0.101799902E+03  0.501735819E+02  0.249965231E+01
    11
 # iter = 18500  time[fs]=18.50000
   N -0.381337476E+00 -0.299073973E+01  0.249988066E+01
   N -0.116917069E+03  0.835156914E+03  0.249983301E+01
   C -0.144332324E+01  0.243435792E+01  0.250045821E+01
   C  0.164967992E+01  0.291851505E+01  0.249981901E+01
   C -0.277151121E+01 -0.246008008E+00  0.249942139E+01
   C  0.222913477E+01 -0.647186093E+00  0.249990737E+01
   H -0.681045063E+01  0.100700355E+02  0.249702407E+01
   H  0.466540421E+01  0.103497052E+02  0.249667901E+01
   H -0.122191748E+02 -0.129102999E+01  0.249484960E+01
   H -0.649074388E+01  0.497990750E+02  0.249778854E+01
  Xx  0.103218263E+03  0.508918273E+02  0.249964718E+01
    11
 # iter = 18750  time[fs]=18.75000
   N -0.376865909E+00 -0.302491783E+01  0.249988160E+01
   N -0.118541600E+03  0.846711185E+03  0.249983067E+01
   C -0.145795344E+01  0.245713808E+01  0.250047097E+01
   C  0.166802705E+01  0.294952165E+01  0.249981510E+01
   C -0.280013922E+01 -0.251308445E+00  0.249941068E+01
   C  0.225049236E+01 -0.663418403E+00  0.249990482E+01
   H -0.690538449E+01  0.102047549E+02  0.249696409E+01
   H  0.473046070E+01  0.104944091E+02  0.249660023E+01
   H -0.123892522E+02 -0.131451025E+01  0.249474054E+01
   H -0.661548701E+01  0.505055629E+02  0.249775408E+01
  Xx  0.104636625E+03  0.516100727E+02  0.249964205E+01
    11
 # iter = 19000  time[fs]=19.00000
   N -0.372396387E+00 -0.305916314E+01  0.249988245E+01
   N -0.120166130E+03  0.858265457E+03  0.249982832E+01
   C -0.147265707E+01  0.247997269E+01  0.250048442E+01
   C  0.168649684E+01  0.298061769E+01  0.249981012E+01
   C -0.282884417E+01 -0.256595232E+00  0.249939981E+01
   C  0.227197157E+01 -0.679691830E+00  0.249990220E+01
   H -0.700051579E+01  0.103397322E+02  0.249690412E+01
   H  0.479573009E+01  0.106394214E+02  0.249652145E+01
   H -0.125596296E+02 -0.133808347E+01  0.249463148E+01
   H -0.674023680E+01  0.512120862E+02  0.249771963E+01
  Xx  0.106054986E+03  0.523283182E+02  0.249963693E+01
    11
 # iter = 19250  time[fs]=19.25000
   N -0.367925577E+00 -0.309345961E+01  0.249988383E+01
   N -0.121790661E+03  0.869819728E+03  0.249982598E+01
   C -0.148741050E+01  0.250283617E+01  0.250049787E+01
   C  0.170502441E+01  0.301182695E+01  0.249980572E+01
   C -0.285760875E+01 -0.261907223E+00  0.249938974E+01
   C  0.229352944E+01 -0.696040136E+00  0.249989988E+01
   H -0.709584051E+01  0.104749618E+02  0.249684414E+01
   H  0.486120744E+01  0.107847342E+02  0.249644267E+01
   H -0.127302992E+02 -0.136174818E+01  0.249452241E+01
   H -0.686499325E+01  0.519186451E+02  0.249768518E+01
  Xx  0.107473348E+03  0.530465636E+02  0.249963180E+01
    11
 # iter = 19500  time[fs]=19.50000
   N -0.363435639E+00 -0.312779689E+01  0.249988517E+01
   N -0.123415191E+03  0.881374000E+03  0.249982363E+01
   C -0.150220750E+01  0.252577371E+01  0.250051047E+01
   C  0.172365106E+01  0.304309333E+01  0.249980128E+01
   C -0.288646678E+01 -0.267209577E+00  0.249937901E+01
   C  0.231520032E+01 -0.712445759E+00  0.249989800E+01
   H -0.719135433E+01  0.106104404E+02  0.249678416E+01
   H  0.492688918E+01  0.109303371E+02  0.249636389E+01
   H -0.129012537E+02 -0.138550323E+01  0.249441335E+01
   H -0.698975636E+01  0.526252313E+02  0.249765072E+01
  Xx  0.108891709E+03  0.537648091E+02  0.249962667E+01
    11
 # iter = 19750  time[fs]=19.75000
   N -0.358911131E+00 -0.316220630E+01  0.249988653E+01
   N -0.125039721E+03  0.892928271E+03  0.249982129E+01
   C -0.151708502E+01  0.254873763E+01  0.250052469E+01
   C  0.174238606E+01  0.307443495E+01  0.249979683E+01
   C -0.291536394E+01 -0.272560925E+00  0.249936880E+01
   C  0.233696492E+01 -0.728904500E+00  0.249989612E+01
   H -0.728705389E+01  0.107461639E+02  0.249672418E+01
   H  0.499277091E+01  0.110762224E+02  0.249628511E+01
   H -0.130724865E+02 -0.140934750E+01  0.249430428E+01
   H -0.711452613E+01  0.533318353E+02  0.249761627E+01
  Xx  0.110310071E+03  0.544830545E+02  0.249962155E+01
    11
 # iter = 20000  time[fs]=20.00000
   N -0.354358026E+00 -0.319674971E+01  0.249988801E+01
   N -0.126664252E+03  0.904482543E+03  0.249981895E+01
   C -0.153196132E+01  0.257175149E+01  0.250053729E+01
   C  0.176117501E+01  0.310589698E+01  0.249979267E+01
   C -0.294434311E+01 -0.277936296E+00  0.249935844E+01
   C  0.235881482E+01 -0.745426914E+00  0.249989452E+01
   H -0.738293365E+01  0.108821258E+02  0.249666420E+01
   H  0.505884567E+01  0.112223811E+02  0.249620632E+01
   H -0.132439911E+02 -0.143327803E+01  0.249419522E+01
   H -0.723930256E+01  0.540384571E+02  0.249758182E+01
  Xx  0.111728432E+03  0.552012999E+02  0.249961642E+01
    11
 # iter = 20250  time[fs]=20.25000
   N -0.349778282E+00 -0.323142471E+01  0.249988988E+01
   N -0.128288782E+03  0.916036814E+03  0.249981660E+01
   C -0.154691164E+01  0.259481747E+01  0.250055086E+01
   C  0.178005469E+01  0.313738164E+01  0.249978850E+01
   C -0.297338435E+01 -0.283317531E+00  0.249934746E+01
   C  0.238078490E+01 -0.761985482E+00  0.249989296E+01
   H -0.747898885E+01  0.110183189E+02  0.249660422E+01
   H  0.512510997E+01  0.113688076E+02  0.249612754E+01
   H -0.134157624E+02 -0.145729210E+01  0.249408616E+01
   H -0.736408566E+01  0.547450966E+02  0.249754736E+01
  Xx  0.113146794E+03  0.559195454E+02  0.249961129E+01
    11
 # iter = 20500  time[fs]=20.50000
   N -0.345164458E+00 -0.326618875E+01  0.249989143E+01
   N -0.129913313E+03  0.927591086E+03  0.249981426E+01
   C -0.156185827E+01  0.261792740E+01  0.250056348E+01
   C  0.179900391E+01  0.316898624E+01  0.249978358E+01
   C -0.300246868E+01 -0.288747841E+00  0.249933700E+01
   C  0.240282279E+01 -0.778589637E+00  0.249989084E+01
   H -0.757521479E+01  0.111547388E+02  0.249654424E+01
   H  0.519155817E+01  0.115154928E+02  0.249604876E+01
   H -0.135877949E+02 -0.148138815E+01  0.249397709E+01
   H -0.748887470E+01  0.554517539E+02  0.249751291E+01
  Xx  0.114565155E+03  0.566377908E+02  0.249960617E+01
    11
 # iter = 20750  time[fs]=20.75000
   N -0.340503216E+00 -0.330099894E+01  0.249989276E+01
   N -0.131537843E+03  0.939145357E+03  0.249981191E+01
   C -0.157685707E+01  0.264109635E+01  0.250057596E+01
   C  0.181800527E+01  0.320067173E+01  0.249977990E+01
   C -0.303163739E+01 -0.294176605E+00  0.249932623E+01
   C  0.242499067E+01 -0.795239357E+00  0.249988889E+01
   H -0.767160873E+01  0.112913806E+02  0.249648426E+01
   H  0.525818695E+01  0.116624328E+02  0.249596998E+01
   H -0.137600806E+02 -0.150556412E+01  0.249386803E+01
   H -0.761366823E+01  0.561584289E+02  0.249747846E+01
  Xx  0.115983517E+03  0.573560363E+02  0.249960104E+01
    11
 # iter = 21000  time[fs]=21.00000
   N -0.335792070E+00 -0.333582807E+01  0.249989469E+01
   N -0.133162373E+03  0.950699629E+03  0.249980957E+01
   C -0.159188261E+01  0.266432556E+01  0.250058942E+01
   C  0.183710095E+01  0.323240078E+01  0.249977537E+01
   C -0.306082981E+01 -0.299641792E+00  0.249931628E+01
   C  0.244722911E+01 -0.811925518E+00  0.249988736E+01
   H -0.776816855E+01  0.114282402E+02  0.249642429E+01
   H  0.532499397E+01  0.118096235E+02  0.249589120E+01
   H -0.139326127E+02 -0.152981910E+01  0.249375896E+01
   H -0.773846620E+01  0.568651217E+02  0.249744400E+01
  Xx  0.117401878E+03  0.580742817E+02  0.249959591E+01
    11
 # iter = 21250  time[fs]=21.25000
   N -0.331036802E+00 -0.337068362E+01  0.249989678E+01
   N -0.134786904E+03  0.962253900E+03  0.249980722E+01
   C -0.160693098E+01  0.268758816E+01  0.250060117E+01
   C  0.185626050E+01  0.326424881E+01  0.249977136E+01
   C -0.309008458E+01 -0.305125800E+00  0.249930657E+01
   C  0.246957161E+01 -0.828647771E+00  0.249988567E+01
   H -0.786489102E+01  0.115653118E+02  0.249636431E+01
   H  0.539197516E+01  0.119570627E+02  0.249581242E+01
   H -0.141053844E+02 -0.155415084E+01  0.249364990E+01
   H -0.786326861E+01  0.575718323E+02  0.249740955E+01
  Xx  0.118820240E+03  0.587925271E+02  0.249959079E+01
    11
 # iter = 21500  time[fs]=21.50000
   N -0.326235203E+00 -0.340559689E+01  0.249989908E+01
   N -0.136411434E+03  0.973808172E+03  0.249980488E+01
   C -0.162203541E+01  0.271092451E+01  0.250061396E+01
   C  0.187547877E+01  0.329614653E+01  0.249976797E+01
   C -0.311940023E+01 -0.310625009E+00  0.249929682E+01
   C  0.249201632E+01 -0.845412447E+00  0.249988364E+01
   H -0.796177193E+01  0.117025889E+02  0.249630433E+01
   H  0.545912596E+01  0.121047457E+02  0.249573364E+01
   H -0.142783893E+02 -0.157855701E+01  0.249354084E+01
   H -0.798807547E+01  0.582785607E+02  0.249737510E+01
  Xx  0.120238601E+03  0.595107726E+02  0.249958566E+01
    11
 # iter = 21750  time[fs]=21.75000
   N -0.321378220E+00 -0.344060632E+01  0.249990148E+01
   N -0.138035965E+03  0.985362443E+03  0.249980253E+01
   C -0.163716802E+01  0.273429973E+01  0.250062595E+01
   C  0.189477413E+01  0.332808684E+01  0.249976323E+01
   C -0.314874689E+01 -0.316163564E+00  0.249928773E+01
   C  0.251452496E+01 -0.862211477E+00  0.249988204E+01
   H -0.805880759E+01  0.118400663E+02  0.249624435E+01
   H  0.552644204E+01  0.122526662E+02  0.249565485E+01
   H -0.144516226E+02 -0.160303580E+01  0.249343177E+01
   H -0.811288676E+01  0.589853068E+02  0.249734064E+01
  Xx  0.121656963E+03  0.602290180E+02  0.249958054E+01
    11
 # iter = 22000  time[fs]=22.00000
   N -0.316459560E+00 -0.347573748E+01  0.249990395E+01
   N -0.139660495E+03  0.996916715E+03  0.249980019E+01
   C -0.165233718E+01  0.275775066E+01  0.250063715E+01
   C  0.191413364E+01  0.336013810E+01  0.249975899E+01
   C -0.317818920E+01 -0.321705406E+00  0.249927791E+01
   C  0.253714549E+01 -0.879042673E+00  0.249987997E+01
   H -0.815599354E+01  0.119777401E+02  0.249618437E+01
   H  0.559391788E+01  0.124008162E+02  0.249557607E+01
   H -0.146250795E+02 -0.162758520E+01  0.249332271E+01
   H -0.823770249E+01  0.596920706E+02  0.249730619E+01
  Xx  0.123075324E+03  0.609472635E+02  0.249957541E+01
    11
 # iter = 22250  time[fs]=22.25000
   N -0.311478479E+00 -0.351096913E+01  0.249990667E+01
   N -0.141285025E+03  0.100847099E+04  0.249979784E+01
   C -0.166753980E+01  0.278123669E+01  0.250064952E+01
   C  0.193355995E+01  0.339219799E+01  0.249975522E+01
   C -0.320766681E+01 -0.327291274E+00  0.249926815E+01
   C  0.255983193E+01 -0.895919954E+00  0.249987850E+01
   H -0.825332633E+01  0.121156059E+02  0.249612439E+01
   H  0.566155023E+01  0.125491908E+02  0.249549729E+01
   H -0.147987555E+02 -0.165220412E+01  0.249321365E+01
   H -0.836252267E+01  0.603988523E+02  0.249727174E+01
  Xx  0.124493686E+03  0.616655089E+02  0.249957028E+01
    11
 # iter = 22500  time[fs]=22.50000
   N -0.306438769E+00 -0.354625660E+01  0.249990917E+01
   N -0.142909556E+03  0.102002526E+04  0.249979550E+01
   C -0.168276801E+01  0.280478677E+01  0.250066110E+01
   C  0.195307294E+01  0.342432968E+01  0.249975023E+01
   C -0.323721971E+01 -0.332895386E+00  0.249925878E+01
   C  0.258259249E+01 -0.912824580E+00  0.249987738E+01
   H -0.835080188E+01  0.122536587E+02  0.249606441E+01
   H  0.572933513E+01  0.126977840E+02  0.249541851E+01
   H -0.149726446E+02 -0.167689063E+01  0.249310458E+01
   H -0.848734728E+01  0.611056517E+02  0.249723728E+01
  Xx  0.125912047E+03  0.623837543E+02  0.249956516E+01
    11
 # iter = 22750  time[fs]=22.75000
   N -0.301342206E+00 -0.358156813E+01  0.249991145E+01
   N -0.144534086E+03  0.103157953E+04  0.249979315E+01
   C -0.169805665E+01  0.282835594E+01  0.250067414E+01
   C  0.197263365E+01  0.345652478E+01  0.249974615E+01
   C -0.326684096E+01 -0.338542348E+00  0.249924864E+01
   C  0.260544736E+01 -0.929799596E+00  0.249987592E+01
   H -0.844841901E+01  0.123918949E+02  0.249600444E+01
   H  0.579727027E+01  0.128465917E+02  0.249533973E+01
   H -0.151467410E+02 -0.170164342E+01  0.249299552E+01
   H -0.861217634E+01  0.618124688E+02  0.249720283E+01
  Xx  0.127330409E+03  0.631019998E+02  0.249956003E+01
    11
 # iter = 23000  time[fs]=23.00000
   N -0.296188912E+00 -0.361689830E+01  0.249991404E+01
   N -0.146158617E+03  0.104313380E+04  0.249979081E+01
   C -0.171337142E+01  0.285197739E+01  0.250068590E+01
   C  0.199227720E+01  0.348872645E+01  0.249974158E+01
   C -0.329649474E+01 -0.344209639E+00  0.249923935E+01
   C  0.262835464E+01 -0.946808272E+00  0.249987452E+01
   H -0.854617437E+01  0.125303108E+02  0.249594446E+01
   H  0.586535263E+01  0.129956089E+02  0.249526095E+01
   H -0.153210398E+02 -0.172646130E+01  0.249288645E+01
   H -0.873700984E+01  0.625193038E+02  0.249716838E+01
  Xx  0.128748770E+03  0.638202452E+02  0.249955490E+01
    11
 # iter = 23250  time[fs]=23.25000
   N -0.290985178E+00 -0.365228168E+01  0.249991682E+01
   N -0.147783147E+03  0.105468807E+04  0.249978846E+01
   C -0.172874074E+01  0.287561747E+01  0.250069754E+01
   C  0.201198664E+01  0.352100138E+01  0.249973683E+01
   C -0.332623388E+01 -0.349929804E+00  0.249922943E+01
   C  0.265136382E+01 -0.963878486E+00  0.249987267E+01
   H -0.864406658E+01  0.126689038E+02  0.249588448E+01
   H  0.593357948E+01  0.131448314E+02  0.249518217E+01
   H -0.154955357E+02 -0.175134355E+01  0.249277739E+01
   H -0.886184778E+01  0.632261564E+02  0.249713392E+01
  Xx  0.130167132E+03  0.645384907E+02  0.249954978E+01
    11
 # iter = 23500  time[fs]=23.50000
   N -0.285731783E+00 -0.368776934E+01  0.249991960E+01
   N -0.149407677E+03  0.106624234E+04  0.249978612E+01
   C -0.174412551E+01  0.289929445E+01  0.250071043E+01
   C  0.203173279E+01  0.355330257E+01  0.249973258E+01
   C -0.335599685E+01 -0.355695772E+00  0.249922054E+01
   C  0.267444199E+01 -0.981006801E+00  0.249987130E+01
   H -0.874209236E+01  0.128076703E+02  0.249582450E+01
   H  0.600194786E+01  0.132942564E+02  0.249510338E+01
   H -0.156702256E+02 -0.177628925E+01  0.249266833E+01
   H -0.898669016E+01  0.639330269E+02  0.249709947E+01
  Xx  0.131585493E+03  0.652567361E+02  0.249954465E+01
    11
 # iter = 23750  time[fs]=23.75000
   N -0.280429166E+00 -0.372337318E+01  0.249992213E+01
   N -0.151032208E+03  0.107779662E+04  0.249978377E+01
   C -0.175953825E+01  0.292302180E+01  0.250072194E+01
   C  0.205156427E+01  0.358560115E+01  0.249972756E+01
   C -0.338583696E+01 -0.361511047E+00  0.249921092E+01
   C  0.269760495E+01 -0.998161005E+00  0.249986961E+01
   H -0.884024960E+01  0.129466075E+02  0.249576452E+01
   H  0.607045509E+01  0.134438775E+02  0.249502460E+01
   H -0.158451065E+02 -0.180129697E+01  0.249255926E+01
   H -0.911153698E+01  0.646399095E+02  0.249706502E+01
  Xx  0.133003855E+03  0.659749816E+02  0.249953952E+01
    11
 # iter = 24000  time[fs]=24.00000
   N -0.275081217E+00 -0.375906827E+01  0.249992542E+01
   N -0.152656738E+03  0.108935089E+04  0.249978143E+01
   C -0.177497100E+01  0.294676246E+01  0.250073484E+01
   C  0.207143608E+01  0.361796570E+01  0.249972274E+01
   C -0.341572924E+01 -0.367379153E+00  0.249920113E+01
   C  0.272086213E+01 -0.101538622E+01  0.249986767E+01
   H -0.893853545E+01  0.130857120E+02  0.249570454E+01
   H  0.613909808E+01  0.135936907E+02  0.249494582E+01
   H -0.160201755E+02 -0.182636543E+01  0.249245020E+01
   H -0.923638824E+01  0.653467924E+02  0.249703056E+01
  Xx  0.134422217E+03  0.666932270E+02  0.249953440E+01
    11
 # iter = 24250  time[fs]=24.25000
   N -0.269694074E+00 -0.379481635E+01  0.249992869E+01
   N -0.154281268E+03  0.110090516E+04  0.249977908E+01
   C -0.179040472E+01  0.297057255E+01  0.250074716E+01
   C  0.209134584E+01  0.365033417E+01  0.249971857E+01
   C -0.344567150E+01 -0.373283731E+00  0.249919218E+01
   C  0.274418261E+01 -0.103263012E+01  0.249986600E+01
   H -0.903694673E+01  0.132249808E+02  0.249564456E+01
   H  0.620787414E+01  0.137436915E+02  0.249486704E+01
   H -0.161954303E+02 -0.185149331E+01  0.249234113E+01
   H -0.936124394E+01  0.660536753E+02  0.249699611E+01
  Xx  0.135840578E+03  0.674114724E+02  0.249952927E+01
    11
 # iter = 24500  time[fs]=24.50000
   N -0.264269053E+00 -0.383058618E+01  0.249993174E+01
   N -0.155905799E+03  0.111245943E+04  0.249977674E+01
   C -0.180586295E+01  0.299438924E+01  0.250075947E+01
   C  0.211134195E+01  0.368272419E+01  0.249971351E+01
   C -0.347569043E+01 -0.379250503E+00  0.249918208E+01
   C  0.276759544E+01 -0.104992076E+01  0.249986425E+01
   H -0.913548176E+01  0.133644117E+02  0.249558458E+01
   H  0.627678073E+01  0.138938744E+02  0.249478826E+01
   H -0.163708645E+02 -0.187667976E+01  0.249223207E+01
   H -0.948610408E+01  0.667605582E+02  0.249696166E+01
  Xx  0.137258940E+03  0.681297179E+02  0.249952414E+01
    11
 # iter = 24750  time[fs]=24.75000
   N -0.258815939E+00 -0.386637933E+01  0.249993504E+01
   N -0.157530329E+03  0.112401370E+04  0.249977439E+01
   C -0.182132020E+01  0.301825730E+01  0.250077197E+01
   C  0.213135665E+01  0.371517702E+01  0.249970888E+01
   C -0.350574995E+01 -0.385247322E+00  0.249917309E+01
   C  0.279107440E+01 -0.106725418E+01  0.249986323E+01
   H -0.923413721E+01  0.135039994E+02  0.249552461E+01
   H  0.634581457E+01  0.140442360E+02  0.249470948E+01
   H -0.165464757E+02 -0.190192344E+01  0.249212301E+01
   H -0.961096867E+01  0.674674411E+02  0.249692720E+01
  Xx  0.138677301E+03  0.688479633E+02  0.249951902E+01
    11
 # iter = 25000  time[fs]=25.00000
   N -0.253352921E+00 -0.390222536E+01  0.249993840E+01
   N -0.159154860E+03  0.113556797E+04  0.249977205E+01
   C -0.183679420E+01  0.304215821E+01  0.250078315E+01
   C  0.215145225E+01  0.374763086E+01  0.249970401E+01
   C -0.353587999E+01 -0.391305742E+00  0.249916384E+01
   C  0.281461628E+01 -0.108460049E+01  0.249986155E+01
   H -0.933291083E+01  0.136437411E+02  0.249546463E+01
   H  0.641497292E+01  0.141947735E+02  0.249463070E+01
   H -0.167222573E+02 -0.192722327E+01  0.249201394E+01
   H -0.973583769E+01  0.681743240E+02  0.249689275E+01
  Xx  0.140095663E+03  0.695662088E+02  0.249951389E+01
    11
 # iter = 25250  time[fs]=25.25000
   N -0.247893773E+00 -0.393816113E+01  0.249994202E+01
   N -0.160779390E+03  0.114712224E+04  0.249976970E+01
   C -0.185226002E+01  0.306606708E+01  0.250079582E+01
   C  0.217160373E+01  0.378011666E+01  0.249969852E+01
   C -0.356605104E+01 -0.397411939E+00  0.249915498E+01
   C  0.283823665E+01 -0.110200668E+01  0.249985981E+01
   H -0.943179989E+01  0.137836335E+02  0.249540465E+01
   H  0.648425248E+01  0.143454840E+02  0.249455191E+01
   H -0.168982075E+02 -0.195257806E+01  0.249190488E+01
   H -0.986071116E+01  0.688812069E+02  0.249685830E+01
  Xx  0.141514024E+03  0.702844542E+02  0.249950876E+01
    11
 # iter = 25500  time[fs]=25.50000
   N -0.242438058E+00 -0.397421413E+01  0.249994555E+01
   N -0.162403920E+03  0.115867652E+04  0.249976736E+01
   C -0.186775118E+01  0.309002888E+01  0.250080665E+01
   C  0.219178905E+01  0.381265115E+01  0.249969454E+01
   C -0.359626465E+01 -0.403561599E+00  0.249914655E+01
   C  0.286190976E+01 -0.111941344E+01  0.249985885E+01
   H -0.953080147E+01  0.139236734E+02  0.249534467E+01
   H  0.655365076E+01  0.144963644E+02  0.249447313E+01
   H -0.170743206E+02 -0.197798655E+01  0.249179582E+01
   H -0.998558906E+01  0.695880899E+02  0.249682384E+01
  Xx  0.142932386E+03  0.710026996E+02  0.249950364E+01
    11
 # iter = 25750  time[fs]=25.75000
   N -0.236987872E+00 -0.401036658E+01  0.249994917E+01
   N -0.164028451E+03  0.117023079E+04  0.249976502E+01
   C -0.188326044E+01  0.311399371E+01  0.250081799E+01
   C  0.221207433E+01  0.384517825E+01  0.249968976E+01
   C -0.362653830E+01 -0.409779183E+00  0.249913698E+01
   C  0.288566010E+01 -0.113687287E+01  0.249985740E+01
   H -0.962991404E+01  0.140638580E+02  0.249528469E+01
   H  0.662316589E+01  0.146474123E+02  0.249439435E+01
   H -0.172505936E+02 -0.200344761E+01  0.249168675E+01
   H -0.101104714E+02  0.702949728E+02  0.249678939E+01
  Xx  0.144350747E+03  0.717209451E+02  0.249949851E+01
    11
 # iter = 26000  time[fs]=26.00000
   N -0.231557355E+00 -0.404656415E+01  0.249995287E+01
   N -0.165652981E+03  0.118178506E+04  0.249976267E+01
   C -0.189878894E+01  0.313799006E+01  0.250082955E+01
   C  0.223238552E+01  0.387773450E+01  0.249968466E+01
   C -0.365683744E+01 -0.416014209E+00  0.249912899E+01
   C  0.290948216E+01 -0.115436528E+01  0.249985604E+01
   H -0.972913710E+01  0.142041845E+02  0.249522471E+01
   H  0.669279542E+01  0.147986247E+02  0.249431557E+01
   H -0.174270254E+02 -0.202895985E+01  0.249157769E+01
   H -0.102353582E+02  0.710018557E+02  0.249675494E+01
  Xx  0.145769109E+03  0.724391905E+02  0.249949338E+01
    11
 # iter = 26250  time[fs]=26.25000
   N -0.226157501E+00 -0.408276336E+01  0.249995656E+01
   N -0.167277512E+03  0.119333933E+04  0.249976033E+01
   C -0.191434756E+01  0.316202325E+01  0.250084010E+01
   C  0.225275477E+01  0.391033068E+01  0.249968066E+01
   C -0.368720560E+01 -0.422326133E+00  0.249912021E+01
   C  0.293336595E+01 -0.117187866E+01  0.249985436E+01
   H -0.982846784E+01  0.143446494E+02  0.249516473E+01
   H  0.676253759E+01  0.149499987E+02  0.249423679E+01
   H -0.176036093E+02 -0.205452231E+01  0.249146862E+01
   H -0.103602494E+02  0.717087386E+02  0.249672048E+01
  Xx  0.147187470E+03  0.731574360E+02  0.249948826E+01
    11
 # iter = 26500  time[fs]=26.50000
   N -0.220785172E+00 -0.411896532E+01  0.249996023E+01
   N -0.168902042E+03  0.120489360E+04  0.249975798E+01
   C -0.192992799E+01  0.318605996E+01  0.250085206E+01
   C  0.227320463E+01  0.394292646E+01  0.249967605E+01
   C -0.371760582E+01 -0.428656497E+00  0.249911198E+01
   C  0.295733411E+01 -0.118945890E+01  0.249985270E+01
   H -0.992790480E+01  0.144852511E+02  0.249510476E+01
   H  0.683239042E+01  0.151015318E+02  0.249415801E+01
   H -0.177803442E+02 -0.208013425E+01  0.249135956E+01
   H -0.104851451E+02  0.724156215E+02  0.249668603E+01
  Xx  0.148605832E+03  0.738756814E+02  0.249948313E+01
    11
 # iter = 26750  time[fs]=26.75000
   N -0.215437740E+00 -0.415521389E+01  0.249996404E+01
   N -0.170526572E+03  0.121644787E+04  0.249975564E+01
   C -0.194553750E+01  0.321015756E+01  0.250086226E+01
   C  0.229365757E+01  0.397557421E+01  0.249967156E+01
   C -0.374805996E+01 -0.435058491E+00  0.249910418E+01
   C  0.298136201E+01 -0.120704882E+01  0.249985169E+01
   H -0.100274447E+02  0.146259862E+02  0.249504478E+01
   H  0.690235131E+01  0.152532206E+02  0.249407923E+01
   H -0.179572300E+02 -0.210579480E+01  0.249125050E+01
   H -0.106100452E+02  0.731225044E+02  0.249665157E+01
  Xx  0.150024193E+03  0.745939268E+02  0.249947800E+01
    11
 # iter = 27000  time[fs]=27.00000
   N -0.210126809E+00 -0.419156117E+01  0.249996784E+01
   N -0.172151103E+03  0.122800215E+04  0.249975329E+01
   C -0.196117270E+01  0.323425429E+01  0.250087380E+01
   C  0.231418217E+01  0.400825037E+01  0.249966765E+01
   C -0.377856351E+01 -0.441499306E+00  0.249909589E+01
   C  0.300544955E+01 -0.122470555E+01  0.249985023E+01
   H -0.101270862E+02  0.147668519E+02  0.249498480E+01
   H  0.697241871E+01  0.154050622E+02  0.249400044E+01
   H -0.181342608E+02 -0.213150302E+01  0.249114143E+01
   H -0.107349498E+02  0.738293873E+02  0.249661712E+01
  Xx  0.151442555E+03  0.753121723E+02  0.249947288E+01
    11
 # iter = 27250  time[fs]=27.25000
   N -0.204864059E+00 -0.422802183E+01  0.249997180E+01
   N -0.173775633E+03  0.123955642E+04  0.249975095E+01
   C -0.197683753E+01  0.325839509E+01  0.250088461E+01
   C  0.233475030E+01  0.404092162E+01  0.249966300E+01
   C -0.380909986E+01 -0.447974822E+00  0.249908881E+01
   C  0.302961478E+01 -0.124238253E+01  0.249984900E+01
   H -0.102268261E+02  0.149078463E+02  0.249492482E+01
   H  0.704259033E+01  0.155570533E+02  0.249392166E+01
   H -0.183114338E+02 -0.215725799E+01  0.249103237E+01
   H -0.108598588E+02  0.745362702E+02  0.249658267E+01
  Xx  0.152860916E+03  0.760304177E+02  0.249946775E+01
    11
 # iter = 27500  time[fs]=27.50000
   N -0.199647312E+00 -0.426456521E+01  0.249997569E+01
   N -0.175400164E+03  0.125111069E+04  0.249974860E+01
   C -0.199252446E+01  0.328255691E+01  0.250089475E+01
   C  0.235534117E+01  0.407364444E+01  0.249965845E+01
   C -0.383968010E+01 -0.454511717E+00  0.249908044E+01
   C  0.305381916E+01 -0.126008863E+01  0.249984746E+01
   H -0.103266637E+02  0.150489664E+02  0.249486484E+01
   H  0.711286359E+01  0.157091908E+02  0.249384288E+01
   H -0.184887489E+02 -0.218305874E+01  0.249092330E+01
   H -0.109847722E+02  0.752431531E+02  0.249654821E+01
  Xx  0.154279278E+03  0.767486632E+02  0.249946262E+01
    11
 # iter = 27750  time[fs]=27.75000
   N -0.194470275E+00 -0.430114332E+01  0.249997949E+01
   N -0.177024694E+03  0.126266496E+04  0.249974626E+01
   C -0.200822780E+01  0.330672757E+01  0.250090588E+01
   C  0.237601148E+01  0.410637334E+01  0.249965440E+01
   C -0.387029166E+01 -0.461070456E+00  0.249907314E+01
   C  0.307809702E+01 -0.127783365E+01  0.249984610E+01
   H -0.104265965E+02  0.151902107E+02  0.249480486E+01
   H  0.718323644E+01  0.158614702E+02  0.249376410E+01
   H -0.186662048E+02 -0.220890437E+01  0.249081424E+01
   H -0.111096901E+02  0.759500360E+02  0.249651376E+01
  Xx  0.155697639E+03  0.774669086E+02  0.249945750E+01
    11
 # iter = 28000  time[fs]=28.00000
   N -0.189335402E+00 -0.433772181E+01  0.249998365E+01
   N -0.178649224E+03  0.127421923E+04  0.249974391E+01
   C -0.202394221E+01  0.333094002E+01  0.250091517E+01
   C  0.239669531E+01  0.413909733E+01  0.249964974E+01
   C -0.390094968E+01 -0.467695872E+00  0.249906563E+01
   C  0.310241615E+01 -0.129557814E+01  0.249984501E+01
   H -0.105266225E+02  0.153315762E+02  0.249474488E+01
   H  0.725370706E+01  0.160138875E+02  0.249368532E+01
   H -0.188437948E+02 -0.223479404E+01  0.249070518E+01
   H -0.112346124E+02  0.766569189E+02  0.249647931E+01
  Xx  0.157116001E+03  0.781851540E+02  0.249945237E+01
    11
 # iter = 28250  time[fs]=28.25000
   N -0.184249024E+00 -0.437429803E+01  0.249998766E+01
   N -0.180273755E+03  0.128577350E+04  0.249974157E+01
   C -0.203967483E+01  0.335514846E+01  0.250092586E+01
   C  0.241744805E+01  0.417188478E+01  0.249964553E+01
   C -0.393165248E+01 -0.474352049E+00  0.249905802E+01
   C  0.312678498E+01 -0.131335683E+01  0.249984330E+01
   H -0.106267400E+02  0.154730610E+02  0.249468490E+01
   H  0.732427308E+01  0.161664394E+02  0.249360654E+01
   H -0.190215182E+02 -0.226072670E+01  0.249059611E+01
   H -0.113595391E+02  0.773638018E+02  0.249644485E+01
  Xx  0.158534362E+03  0.789033995E+02  0.249944724E+01
    11
 # iter = 28500  time[fs]=28.50000
   N -0.179208077E+00 -0.441091510E+01  0.249999148E+01
   N -0.181898285E+03  0.129732777E+04  0.249973922E+01
   C -0.205541064E+01  0.337939789E+01  0.250093599E+01
   C  0.243825485E+01  0.420465525E+01  0.249964156E+01
   C -0.396240587E+01 -0.481048476E+00  0.249905133E+01
   C  0.315123978E+01 -0.133113589E+01  0.249984198E+01
   H -0.107269463E+02  0.156146618E+02  0.249462493E+01
   H  0.739493214E+01  0.163191245E+02  0.249352776E+01
   H -0.191993747E+02 -0.228670138E+01  0.249048705E+01
   H -0.114844703E+02  0.780706847E+02  0.249641040E+01
  Xx  0.159952724E+03  0.796216449E+02  0.249944212E+01
    11
 # iter = 28750  time[fs]=28.75000
   N -0.174202957E+00 -0.444763024E+01  0.249999550E+01
   N -0.183522816E+03  0.130888205E+04  0.249973688E+01
   C -0.207114873E+01  0.340366969E+01  0.250094550E+01
   C  0.245909390E+01  0.423745905E+01  0.249963684E+01
   C -0.399320305E+01 -0.487791564E+00  0.249904361E+01
   C  0.317572113E+01 -0.134893635E+01  0.249984062E+01
   H -0.108272415E+02  0.157563780E+02  0.249456495E+01
   H  0.746568252E+01  0.164719426E+02  0.249344897E+01
   H -0.193773615E+02 -0.231271723E+01  0.249037798E+01
   H -0.116094060E+02  0.787775677E+02  0.249637595E+01
  Xx  0.161371085E+03  0.803398904E+02  0.249943699E+01
    11
 # iter = 29000  time[fs]=29.00000
   N -0.169232880E+00 -0.448445777E+01  0.249999953E+01
   N -0.185147346E+03  0.132043632E+04  0.249973453E+01
   C -0.208691520E+01  0.342797593E+01  0.250095648E+01
   C  0.248000108E+01  0.427031518E+01  0.249963203E+01
   C -0.402404186E+01 -0.494547741E+00  0.249903750E+01
   C  0.320029483E+01 -0.136675875E+01  0.249983944E+01
   H -0.109276227E+02  0.158982069E+02  0.249450497E+01
   H  0.753652274E+01  0.166248881E+02  0.249337019E+01
   H -0.195554729E+02 -0.233877372E+01  0.249026892E+01
   H -0.117343461E+02  0.794844506E+02  0.249634149E+01
  Xx  0.162789447E+03  0.810581358E+02  0.249943186E+01
    11
 # iter = 29250  time[fs]=29.25000
   N -0.164309070E+00 -0.452135656E+01  0.250000327E+01
   N -0.186771876E+03  0.133199059E+04  0.249973219E+01
   C -0.210266621E+01  0.345231771E+01  0.250096532E+01
   C  0.250093644E+01  0.430313963E+01  0.249962745E+01
   C -0.405491595E+01 -0.501373377E+00  0.249903100E+01
   C  0.322490642E+01 -0.138459633E+01  0.249983834E+01
   H -0.110280883E+02  0.160401468E+02  0.249444499E+01
   H  0.760745156E+01  0.167779578E+02  0.249329141E+01
   H -0.197337086E+02 -0.236487065E+01  0.249015986E+01
   H -0.118592906E+02  0.801913335E+02  0.249630704E+01
  Xx  0.164207808E+03  0.817763813E+02  0.249942674E+01
    11
 # iter = 29500  time[fs]=29.50000
   N -0.159435985E+00 -0.455827028E+01  0.250000723E+01
   N -0.188396407E+03  0.134354486E+04  0.249972984E+01
   C -0.211845419E+01  0.347667627E+01  0.250097524E+01
   C  0.252191808E+01  0.433600965E+01  0.249962219E+01
   C -0.408581421E+01 -0.508208858E+00  0.249902482E+01
   C  0.324957273E+01 -0.140246698E+01  0.249983698E+01
   H -0.111286382E+02  0.161821943E+02  0.249438501E+01
   H  0.767846734E+01  0.169311519E+02  0.249321263E+01
   H -0.199120686E+02 -0.239100756E+01  0.249005079E+01
   H -0.119842395E+02  0.808982164E+02  0.249627259E+01
  Xx  0.165626170E+03  0.824946267E+02  0.249942161E+01
    11
 # iter = 29750  time[fs]=29.75000
   N -0.154598591E+00 -0.459517048E+01  0.250001123E+01
   N -0.190020937E+03  0.135509913E+04  0.249972750E+01
   C -0.213423962E+01  0.350107624E+01  0.250098511E+01
   C  0.254293811E+01  0.436890124E+01  0.249961732E+01
   C -0.411675093E+01 -0.515100172E+00  0.249901940E+01
   C  0.327431470E+01 -0.142036697E+01  0.249983605E+01
   H -0.112292714E+02  0.163243484E+02  0.249432503E+01
   H  0.774956888E+01  0.170844704E+02  0.249313385E+01
   H -0.200905483E+02 -0.241718377E+01  0.248994173E+01
   H -0.121091929E+02  0.816050993E+02  0.249623813E+01
  Xx  0.167044531E+03  0.832128721E+02  0.249941649E+01
    11
 # iter = 30000  time[fs]=30.00000
   N -0.149783470E+00 -0.463207548E+01  0.250001526E+01
   N -0.191645468E+03  0.136665340E+04  0.249972515E+01
   C -0.215004530E+01  0.352548776E+01  0.250099394E+01
   C  0.256398720E+01  0.440176813E+01  0.249961286E+01
   C -0.414771518E+01 -0.522016980E+00  0.249901252E+01
   C  0.329907040E+01 -0.143829583E+01  0.249983470E+01
   H -0.113299848E+02  0.164666091E+02  0.249426505E+01
   H  0.782075473E+01  0.172379119E+02  0.249305507E+01
   H -0.202691434E+02 -0.244339862E+01  0.248983267E+01
   H -0.122341508E+02  0.823119822E+02  0.249620368E+01
  Xx  0.168462893E+03  0.839311176E+02  0.249941136E+01
    11
 # iter = 30250  time[fs]=30.25000
   N -0.144993996E+00 -0.466903508E+01  0.250001917E+01
   N -0.193269998E+03  0.137820768E+04  0.249972281E+01
   C -0.216587966E+01  0.354992892E+01  0.250100408E+01
   C  0.258508802E+01  0.443471090E+01  0.249960716E+01
   C -0.417872246E+01 -0.528954850E+00  0.249900726E+01
   C  0.332390456E+01 -0.145625179E+01  0.249983328E+01
   H -0.114307781E+02  0.166089764E+02  0.249420507E+01
   H  0.789202332E+01  0.173914699E+02  0.249297629E+01
   H -0.204478541E+02 -0.246965099E+01  0.248972360E+01
   H -0.123591131E+02  0.830188651E+02  0.249616923E+01
  Xx  0.169881254E+03  0.846493630E+02  0.249940623E+01
    11
 # iter = 30500  time[fs]=30.50000
   N -0.140232718E+00 -0.470608895E+01  0.250002292E+01
   N -0.194894528E+03  0.138976195E+04  0.249972046E+01
   C -0.218172301E+01  0.357437779E+01  0.250101256E+01
   C  0.260621028E+01  0.446764671E+01  0.249960290E+01
   C -0.420976857E+01 -0.535946627E+00  0.249900145E+01
   C  0.334876886E+01 -0.147424159E+01  0.249983236E+01
   H -0.115316508E+02  0.167514490E+02  0.249414510E+01
   H  0.796337339E+01  0.175451433E+02  0.249289750E+01
   H -0.206266801E+02 -0.249594004E+01  0.248961454E+01
   H -0.124840798E+02  0.837257480E+02  0.249613477E+01
  Xx  0.171299616E+03  0.853676085E+02  0.249940111E+01
    11
 # iter = 30750  time[fs]=30.75000
   N -0.135486235E+00 -0.474323729E+01  0.250002648E+01
   N -0.196519059E+03  0.140131622E+04  0.249971812E+01
   C -0.219761090E+01  0.359885330E+01  0.250102182E+01
   C  0.262738476E+01  0.450059392E+01  0.249959831E+01
   C -0.424085839E+01 -0.542938781E+00  0.249899630E+01
   C  0.337367482E+01 -0.149224482E+01  0.249983131E+01
   H -0.116325997E+02  0.168940201E+02  0.249408512E+01
   H  0.803480346E+01  0.176989322E+02  0.249281872E+01
   H -0.208056217E+02 -0.252226544E+01  0.248950547E+01
   H -0.126090509E+02  0.844326309E+02  0.249610032E+01
  Xx  0.172717977E+03  0.860858539E+02  0.249939598E+01
    11
 # iter = 31000  time[fs]=31.00000
   N -0.130744468E+00 -0.478043824E+01  0.250003009E+01
   N -0.198143589E+03  0.141287049E+04  0.249971577E+01
   C -0.221350058E+01  0.362333676E+01  0.250103091E+01
   C  0.264858480E+01  0.453360126E+01  0.249959244E+01
   C -0.427197761E+01 -0.549981311E+00  0.249899119E+01
   C  0.339864853E+01 -0.151028291E+01  0.249983062E+01
   H -0.117336240E+02  0.170366889E+02  0.249402514E+01
   H  0.810631248E+01  0.178528325E+02  0.249273994E+01
   H -0.209846753E+02 -0.254862669E+01  0.248939641E+01
   H -0.127340266E+02  0.851395138E+02  0.249606587E+01
  Xx  0.174136339E+03  0.868040993E+02  0.249939085E+01
    11
 # iter = 31250  time[fs]=31.25000
   N -0.126012958E+00 -0.481764251E+01  0.250003362E+01
   N -0.199768120E+03  0.142442476E+04  0.249971343E+01
   C -0.222941824E+01  0.364784720E+01  0.250103876E+01
   C  0.266983211E+01  0.456657985E+01  0.249958833E+01
   C -0.430312734E+01 -0.557032834E+00  0.249898540E+01
   C  0.342364311E+01 -0.152832433E+01  0.249982966E+01
   H -0.118347236E+02  0.171794554E+02  0.249396516E+01
   H  0.817789764E+01  0.180068394E+02  0.249266116E+01
   H -0.211638356E+02 -0.257502318E+01  0.248928735E+01
   H -0.128590066E+02  0.858463967E+02  0.249603141E+01
  Xx  0.175554700E+03  0.875223448E+02  0.249938573E+01
    11
 # iter = 31500  time[fs]=31.50000
   N -0.121292479E+00 -0.485483009E+01  0.250003696E+01
   N -0.201392650E+03  0.143597903E+04  0.249971108E+01
   C -0.224534835E+01  0.367239226E+01  0.250104832E+01
   C  0.269114353E+01  0.459958620E+01  0.249958349E+01
   C -0.433431189E+01 -0.564110842E+00  0.249898146E+01
   C  0.344872426E+01 -0.154637903E+01  0.249982866E+01
   H -0.119358955E+02  0.173223196E+02  0.249390518E+01
   H  0.824955830E+01  0.181609529E+02  0.249258238E+01
   H -0.213431024E+02 -0.260145432E+01  0.248917828E+01
   H -0.129839911E+02  0.865532796E+02  0.249599696E+01
  Xx  0.176973062E+03  0.882405902E+02  0.249938060E+01
    11
 # iter = 31750  time[fs]=31.75000
   N -0.116569987E+00 -0.489202595E+01  0.250004046E+01
   N -0.203017180E+03  0.144753330E+04  0.249970874E+01
   C -0.226129365E+01  0.369695277E+01  0.250105627E+01
   C  0.271246702E+01  0.463262663E+01  0.249957870E+01
   C -0.436551357E+01 -0.571226783E+00  0.249897580E+01
   C  0.347383861E+01 -0.156445718E+01  0.249982752E+01
   H -0.120371383E+02  0.174652813E+02  0.249384520E+01
   H  0.832129446E+01  0.183151730E+02  0.249250360E+01
   H -0.215224759E+02 -0.262791974E+01  0.248906922E+01
   H -0.131089800E+02  0.872601625E+02  0.249596251E+01
  Xx  0.178391423E+03  0.889588357E+02  0.249937547E+01
    11
 # iter = 32000  time[fs]=32.00000
   N -0.111834319E+00 -0.492928331E+01  0.250004384E+01
   N -0.204641711E+03  0.145908758E+04  0.249970640E+01
   C -0.227725699E+01  0.372155836E+01  0.250106483E+01
   C  0.273386598E+01  0.466564341E+01  0.249957514E+01
   C -0.439675744E+01 -0.578350381E+00  0.249897136E+01
   C  0.349900336E+01 -0.158251787E+01  0.249982603E+01
   H -0.121384523E+02  0.176083347E+02  0.249378522E+01
   H  0.839310462E+01  0.184694996E+02  0.249242482E+01
   H -0.217019559E+02 -0.265441863E+01  0.248896015E+01
   H -0.132339734E+02  0.879670455E+02  0.249592805E+01
  Xx  0.179809785E+03  0.896770811E+02  0.249937035E+01
    11
 # iter = 32250  time[fs]=32.25000
   N -0.107088589E+00 -0.496664019E+01  0.250004694E+01
   N -0.206266241E+03  0.147064185E+04  0.249970405E+01
   C -0.229322305E+01  0.374616757E+01  0.250107314E+01
   C  0.275529838E+01  0.469871996E+01  0.249956981E+01
   C -0.442802266E+01 -0.585523850E+00  0.249896672E+01
   C  0.352422857E+01 -0.160061867E+01  0.249982490E+01
   H -0.122398372E+02  0.177514769E+02  0.249372525E+01
   H  0.846498590E+01  0.186239324E+02  0.249234603E+01
   H -0.218815391E+02 -0.268095062E+01  0.248885109E+01
   H -0.133589712E+02  0.886739284E+02  0.249589360E+01
  Xx  0.181228146E+03  0.903953265E+02  0.249936522E+01
    11
 # iter = 32500  time[fs]=32.50000
   N -0.102335373E+00 -0.500408163E+01  0.250005013E+01
   N -0.207890771E+03  0.148219612E+04  0.249970171E+01
   C -0.230920303E+01  0.377081588E+01  0.250108023E+01
   C  0.277675225E+01  0.473180744E+01  0.249956540E+01
   C -0.445932663E+01 -0.592693326E+00  0.249896170E+01
   C  0.354947524E+01 -0.161869963E+01  0.249982355E+01
   H -0.123412900E+02  0.178947078E+02  0.249366527E+01
   H  0.853693824E+01  0.187784648E+02  0.249226725E+01
   H -0.220612201E+02 -0.270751489E+01  0.248874203E+01
   H -0.134839735E+02  0.893808113E+02  0.249585915E+01
  Xx  0.182646508E+03  0.911135720E+02  0.249936009E+01
    11
 # iter = 32750  time[fs]=32.75000
   N -0.975606681E-01 -0.504155361E+01  0.250005309E+01
   N -0.209515302E+03  0.149375039E+04  0.249969936E+01
   C -0.232519305E+01  0.379547153E+01  0.250108892E+01
   C  0.279827183E+01  0.476488770E+01  0.249956172E+01
   C -0.449067254E+01 -0.599910845E+00  0.249895792E+01
   C  0.357477504E+01 -0.163681148E+01  0.249982261E+01
   H -0.124428095E+02  0.180380277E+02  0.249360529E+01
   H  0.860896121E+01  0.189330950E+02  0.249218847E+01
   H -0.222409987E+02 -0.273411107E+01  0.248863296E+01
   H -0.136089801E+02  0.900876942E+02  0.249582469E+01
  Xx  0.184064869E+03  0.918318174E+02  0.249935497E+01
    11
 # iter = 33000  time[fs]=33.00000
   N -0.927505000E-01 -0.507900719E+01  0.250005623E+01
   N -0.211139832E+03  0.150530466E+04  0.249969702E+01
   C -0.234118965E+01  0.382013629E+01  0.250109595E+01
   C  0.281978032E+01  0.479801687E+01  0.249955667E+01
   C -0.452204011E+01 -0.607137960E+00  0.249895235E+01
   C  0.360010917E+01 -0.165494133E+01  0.249982174E+01
   H -0.125443956E+02  0.181814363E+02  0.249354531E+01
   H  0.868105150E+01  0.190878228E+02  0.249210969E+01
   H -0.224208751E+02 -0.276073837E+01  0.248852390E+01
   H -0.137339913E+02  0.907945771E+02  0.249579024E+01
  Xx  0.185483231E+03  0.925500629E+02  0.249934984E+01
    11
 # iter = 33250  time[fs]=33.25000
   N -0.879089818E-01 -0.511644437E+01  0.250005927E+01
   N -0.212764363E+03  0.151685893E+04  0.249969467E+01
   C -0.235719094E+01  0.384482768E+01  0.250110390E+01
   C  0.284133373E+01  0.483114108E+01  0.249955254E+01
   C -0.455344866E+01 -0.614393941E+00  0.249894898E+01
   C  0.362547932E+01 -0.167306853E+01  0.249982079E+01
   H -0.126460483E+02  0.183249318E+02  0.249348533E+01
   H  0.875320840E+01  0.192426484E+02  0.249203091E+01
   H -0.226008492E+02 -0.278739640E+01  0.248841484E+01
   H -0.138590065E+02  0.915014600E+02  0.249575579E+01
  Xx  0.186901592E+03  0.932683083E+02  0.249934471E+01
    11
 # iter = 33500  time[fs]=33.50000
   N -0.830444550E-01 -0.515390791E+01  0.250006206E+01
   N -0.214388893E+03  0.152841321E+04  0.249969233E+01
   C -0.237321097E+01  0.386951413E+01  0.250111154E+01
   C  0.286292954E+01  0.486426312E+01  0.249954844E+01
   C -0.458486600E+01 -0.621687673E+00  0.249894458E+01
   C  0.365090726E+01 -0.169125092E+01  0.249982026E+01
   H -0.127477672E+02  0.184685100E+02  0.249342535E+01
   H  0.882543192E+01  0.193975716E+02  0.249195213E+01
   H -0.227809199E+02 -0.281408479E+01  0.248830577E+01
   H -0.139840226E+02  0.922083429E+02  0.249572133E+01
  Xx  0.188319954E+03  0.939865538E+02  0.249933959E+01
    11
 # iter = 33750  time[fs]=33.75000
   N -0.781496497E-01 -0.519144091E+01  0.250006483E+01
   N -0.216013423E+03  0.153996748E+04  0.249968998E+01
   C -0.238922572E+01  0.389423856E+01  0.250111788E+01
   C  0.288451861E+01  0.489743335E+01  0.249954343E+01
   C -0.461632322E+01 -0.628991464E+00  0.249894059E+01
   C  0.367636755E+01 -0.170942002E+01  0.249981910E+01
   H -0.128495489E+02  0.186121682E+02  0.249336537E+01
   H  0.889772205E+01  0.195525926E+02  0.249187335E+01
   H -0.229610806E+02 -0.284080318E+01  0.248819671E+01
   H -0.141090387E+02  0.929152258E+02  0.249568688E+01
  Xx  0.189738315E+03  0.947047992E+02  0.249933446E+01
    11
 # iter = 34000  time[fs]=34.00000
   N -0.732080838E-01 -0.522905982E+01  0.250006734E+01
   N -0.217637954E+03  0.155152175E+04  0.249968764E+01
   C -0.240527329E+01  0.391896980E+01  0.250112588E+01
   C  0.290618571E+01  0.493058937E+01  0.249953938E+01
   C -0.464779561E+01 -0.636340887E+00  0.249893765E+01
   C  0.370187965E+01 -0.172763885E+01  0.249981841E+01
   H -0.129513928E+02  0.187559064E+02  0.249330539E+01
   H  0.897007771E+01  0.197077075E+02  0.249179456E+01
   H -0.231413301E+02 -0.286755128E+01  0.248808764E+01
   H -0.142340548E+02  0.936221087E+02  0.249565243E+01
  Xx  0.191156677E+03  0.954230446E+02  0.249932933E+01
    11
 # iter = 34250  time[fs]=34.25000
   N -0.682161523E-01 -0.526674345E+01  0.250006958E+01
   N -0.219262484E+03  0.156307602E+04  0.249968529E+01
   C -0.242132541E+01  0.394373321E+01  0.250113197E+01
   C  0.292785312E+01  0.496376499E+01  0.249953517E+01
   C -0.467930343E+01 -0.643695576E+00  0.249893326E+01
   C  0.372744872E+01 -0.174586033E+01  0.249981751E+01
   H -0.130532989E+02  0.188997245E+02  0.249324542E+01
   H  0.904249573E+01  0.198629114E+02  0.249171578E+01
   H -0.233216684E+02 -0.289432829E+01  0.248797858E+01
   H -0.143590709E+02  0.943289916E+02  0.249561797E+01
  Xx  0.192575038E+03  0.961412901E+02  0.249932421E+01
    11
 # iter = 34500  time[fs]=34.50000
   N -0.631835367E-01 -0.530444427E+01  0.250007174E+01
   N -0.220887015E+03  0.157463029E+04  0.249968295E+01
   C -0.243738549E+01  0.396851768E+01  0.250113888E+01
   C  0.294956332E+01  0.499698437E+01  0.249953005E+01
   C -0.471085182E+01 -0.651101972E+00  0.249893133E+01
   C  0.375304700E+01 -0.176408528E+01  0.249981673E+01
   H -0.131552672E+02  0.190436226E+02  0.249318544E+01
   H  0.911497594E+01  0.200182040E+02  0.249163700E+01
   H -0.235020955E+02 -0.292113396E+01  0.248786952E+01
   H -0.144840870E+02  0.950358745E+02  0.249558352E+01
  Xx  0.193993400E+03  0.968595355E+02  0.249931908E+01
    11
 # iter = 34750  time[fs]=34.75000
   N -0.581121917E-01 -0.534212352E+01  0.250007385E+01
   N -0.222511545E+03  0.158618456E+04  0.249968060E+01
   C -0.245348198E+01  0.399332565E+01  0.250114561E+01
   C  0.297134273E+01  0.503018584E+01  0.249952599E+01
   C -0.474241254E+01 -0.658522963E+00  0.249892753E+01
   C  0.377870391E+01 -0.178234527E+01  0.249981640E+01
   H -0.132572967E+02  0.191876005E+02  0.249312546E+01
   H  0.918751831E+01  0.201735855E+02  0.249155822E+01
   H -0.236826115E+02 -0.294796763E+01  0.248776045E+01
   H -0.146091031E+02  0.957427574E+02  0.249554907E+01
  Xx  0.195411761E+03  0.975777810E+02  0.249931395E+01
    11
 # iter = 35000  time[fs]=35.00000
   N -0.529935608E-01 -0.537978555E+01  0.250007581E+01
   N -0.224136075E+03  0.159773883E+04  0.249967826E+01
   C -0.246957105E+01  0.401815027E+01  0.250115110E+01
   C  0.299311705E+01  0.506341556E+01  0.249952193E+01
   C -0.477402028E+01 -0.665983581E+00  0.249892495E+01
   C  0.380438987E+01 -0.180058437E+01  0.249981549E+01
   H -0.133593843E+02  0.193316585E+02  0.249306548E+01
   H  0.926012285E+01  0.203290558E+02  0.249147944E+01
   H -0.238632163E+02 -0.297482907E+01  0.248765139E+01
   H -0.147341191E+02  0.964496403E+02  0.249551461E+01
  Xx  0.196830123E+03  0.982960264E+02  0.249930883E+01
    11
 # iter = 35250  time[fs]=35.25000
   N -0.478270335E-01 -0.541748216E+01  0.250007764E+01
   N -0.225760606E+03  0.160929311E+04  0.249967591E+01
   C -0.248569782E+01  0.404298938E+01  0.250115838E+01
   C  0.301494955E+01  0.509667193E+01  0.249951688E+01
   C -0.480563652E+01 -0.673479691E+00  0.249892241E+01
   C  0.383010345E+01 -0.181885161E+01  0.249981522E+01
   H -0.134615296E+02  0.194757958E+02  0.249300550E+01
   H  0.933278719E+01  0.204846149E+02  0.249140066E+01
   H -0.240439094E+02 -0.300171822E+01  0.248754232E+01
   H -0.148591352E+02  0.971565233E+02  0.249548016E+01
  Xx  0.198248484E+03  0.990142718E+02  0.249930370E+01
    11
 # iter = 35500  time[fs]=35.50000
   N -0.426232204E-01 -0.545526325E+01  0.250007923E+01
   N -0.227385136E+03  0.162084738E+04  0.249967357E+01
   C -0.250182928E+01  0.406784423E+01  0.250116353E+01
   C  0.303680908E+01  0.512989767E+01  0.249951347E+01
   C -0.483728735E+01 -0.680993877E+00  0.249891915E+01
   C  0.385587756E+01 -0.183710937E+01  0.249981436E+01
   H -0.135637327E+02  0.196200062E+02  0.249294552E+01
   H  0.940550926E+01  0.206402623E+02  0.249132188E+01
   H -0.242246844E+02 -0.302863426E+01  0.248743326E+01
   H -0.149841513E+02  0.978634062E+02  0.249544571E+01
  Xx  0.199666846E+03  0.997325173E+02  0.249929857E+01
    11
 # iter = 35750  time[fs]=35.75000
   N -0.373851303E-01 -0.549312766E+01  0.250008065E+01
   N -0.229009667E+03  0.163240165E+04  0.249967122E+01
   C -0.251796736E+01  0.409269991E+01  0.250116993E+01
   C  0.305867432E+01  0.516318025E+01  0.249950940E+01
   C -0.486895227E+01 -0.688555794E+00  0.249891823E+01
   C  0.388165387E+01 -0.185537207E+01  0.249981318E+01
   H -0.136659935E+02  0.197642876E+02  0.249288554E+01
   H  0.947828906E+01  0.207959915E+02  0.249124309E+01
   H -0.244055394E+02 -0.305557695E+01  0.248732420E+01
   H -0.151091674E+02  0.985702891E+02  0.249541125E+01
  Xx  0.201085207E+03  0.100450763E+03  0.249929345E+01
    11
 # iter = 36000  time[fs]=36.00000
   N -0.321031187E-01 -0.553102909E+01  0.250008194E+01
   N -0.230634197E+03  0.164395592E+04  0.249966888E+01
   C -0.253412667E+01  0.411757925E+01  0.250117572E+01
   C  0.308059089E+01  0.519646724E+01  0.249950437E+01
   C -0.490063723E+01 -0.696126335E+00  0.249891489E+01
   C  0.390749985E+01 -0.187365781E+01  0.249981268E+01
   H -0.137683120E+02  0.199086401E+02  0.249282556E+01
   H  0.955112659E+01  0.209518007E+02  0.249116431E+01
   H -0.245864743E+02 -0.308254622E+01  0.248721513E+01
   H -0.152341835E+02  0.992771720E+02  0.249537680E+01
  Xx  0.202503569E+03  0.101169008E+03  0.249928832E+01
    11
 # iter = 36250  time[fs]=36.25000
   N -0.267772065E-01 -0.556891821E+01  0.250008302E+01
   N -0.232258727E+03  0.165551019E+04  0.249966653E+01
   C -0.255027933E+01  0.414245265E+01  0.250118036E+01
   C  0.310250348E+01  0.522974487E+01  0.249950146E+01
   C -0.493236353E+01 -0.703745113E+00  0.249891365E+01
   C  0.393337037E+01 -0.189193733E+01  0.249981170E+01
   H -0.138706876E+02  0.200530636E+02  0.249276559E+01
   H  0.962402185E+01  0.211076898E+02  0.249108553E+01
   H -0.247674891E+02 -0.310954126E+01  0.248710607E+01
   H -0.153591996E+02  0.999840549E+02  0.249534235E+01
  Xx  0.203921930E+03  0.101887254E+03  0.249928319E+01
    11
 # iter = 36500  time[fs]=36.50000
   N -0.214233134E-01 -0.560678506E+01  0.250008387E+01
   N -0.233883258E+03  0.166706446E+04  0.249966419E+01
   C -0.256645054E+01  0.416736551E+01  0.250118665E+01
   C  0.312445139E+01  0.526308873E+01  0.249949677E+01
   C -0.496409746E+01 -0.711380296E+00  0.249891132E+01
   C  0.395927792E+01 -0.191024870E+01  0.249981131E+01
   H -0.139731169E+02  0.201975582E+02  0.249270561E+01
   H  0.969697485E+01  0.212636588E+02  0.249100675E+01
   H -0.249485839E+02 -0.313656184E+01  0.248699700E+01
   H -0.154842157E+02  0.100690938E+03  0.249530789E+01
  Xx  0.205340292E+03  0.102605499E+03  0.249927807E+01
    11
 # iter = 36750  time[fs]=36.75000
   N -0.160532199E-01 -0.564466210E+01  0.250008458E+01
   N -0.235507788E+03  0.167861874E+04  0.249966184E+01
   C -0.258262632E+01  0.419228176E+01  0.250119053E+01
   C  0.314643684E+01  0.529640598E+01  0.249949208E+01
   C -0.499588578E+01 -0.719049673E+00  0.249890932E+01
   C  0.398525247E+01 -0.192856758E+01  0.249981061E+01
   H -0.140755995E+02  0.203421238E+02  0.249264563E+01
   H  0.976998395E+01  0.214197078E+02  0.249092797E+01
   H -0.251297586E+02 -0.316360787E+01  0.248688794E+01
   H -0.156092318E+02  0.101397821E+03  0.249527344E+01
  Xx  0.206758653E+03  0.103323744E+03  0.249927294E+01
    11
 # iter = 37000  time[fs]=37.00000
   N -0.106666405E-01 -0.568258660E+01  0.250008524E+01
   N -0.237132319E+03  0.169017301E+04  0.249965950E+01
   C -0.259880758E+01  0.421722320E+01  0.250119602E+01
   C  0.316843760E+01  0.532972987E+01  0.249948968E+01
   C -0.502768085E+01 -0.726747532E+00  0.249890886E+01
   C  0.401122529E+01 -0.194691413E+01  0.249981012E+01
   H -0.141781354E+02  0.204867605E+02  0.249258565E+01
   H  0.984304639E+01  0.215758367E+02  0.249084919E+01
   H -0.253110132E+02 -0.319067865E+01  0.248677888E+01
   H -0.157342478E+02  0.102104704E+03  0.249523898E+01
  Xx  0.208177015E+03  0.104041990E+03  0.249926781E+01
    11
 # iter = 37250  time[fs]=37.25000
   N -0.526363348E-02 -0.572057906E+01  0.250008568E+01
   N -0.238756849E+03  0.170172728E+04  0.249965715E+01
   C -0.261500468E+01  0.424219194E+01  0.250120064E+01
   C  0.319048976E+01  0.536310793E+01  0.249948451E+01
   C -0.505950332E+01 -0.734462394E+00  0.249890623E+01
   C  0.403726544E+01 -0.196528016E+01  0.249980997E+01
   H -0.142807246E+02  0.206314683E+02  0.249252567E+01
   H  0.991616211E+01  0.217320455E+02  0.249077041E+01
   H -0.254923477E+02 -0.321777392E+01  0.248666981E+01
   H -0.158592639E+02  0.102811587E+03  0.249520453E+01
  Xx  0.209595377E+03  0.104760235E+03  0.249926269E+01
    11
 # iter = 37500  time[fs]=37.50000
   N  0.146593482E-03 -0.575863269E+01  0.250008589E+01
   N -0.240381379E+03  0.171328155E+04  0.249965481E+01
   C -0.263120608E+01  0.426715751E+01  0.250120428E+01
   C  0.321256579E+01  0.539643795E+01  0.249948082E+01
   C -0.509134557E+01 -0.742223572E+00  0.249890656E+01
   C  0.406331669E+01 -0.198366355E+01  0.249980919E+01
   H -0.143833671E+02  0.207762471E+02  0.249246569E+01
   H  0.998933113E+01  0.218883343E+02  0.249069162E+01
   H -0.256737566E+02 -0.324489361E+01  0.248656075E+01
   H -0.159842800E+02  0.103518469E+03  0.249517008E+01
  Xx  0.211013738E+03  0.105478481E+03  0.249925756E+01
    11
 # iter = 37750  time[fs]=37.75000
   N  0.554988275E-02 -0.579671085E+01  0.250008604E+01
   N -0.242005910E+03  0.172483582E+04  0.249965247E+01
   C -0.264741888E+01  0.429215993E+01  0.250120952E+01
   C  0.323468042E+01  0.542982031E+01  0.249947841E+01
   C -0.512318864E+01 -0.749986347E+00  0.249890477E+01
   C  0.408938913E+01 -0.200205769E+01  0.249980927E+01
   H -0.144860629E+02  0.209210922E+02  0.249240571E+01
   H  0.100625534E+02  0.220447030E+02  0.249061284E+01
   H -0.258552366E+02 -0.327203756E+01  0.248645169E+01
   H -0.161092961E+02  0.104225352E+03  0.249513562E+01
  Xx  0.212432100E+03  0.106196726E+03  0.249925243E+01
    11
 # iter = 38000  time[fs]=38.00000
   N  0.109369721E-01 -0.583477046E+01  0.250008602E+01
   N -0.243630440E+03  0.173639009E+04  0.249965012E+01
   C -0.266365783E+01  0.431715139E+01  0.250121212E+01
   C  0.325682507E+01  0.546322442E+01  0.249947284E+01
   C -0.515507432E+01 -0.757788234E+00  0.249890437E+01
   C  0.411551985E+01 -0.202046946E+01  0.249980862E+01
   H -0.145888097E+02  0.210659995E+02  0.249234574E+01
   H  0.101358290E+02  0.222011468E+02  0.249053406E+01
   H -0.260367877E+02 -0.329920502E+01  0.248634262E+01
   H -0.162343122E+02  0.104932235E+03  0.249510117E+01
  Xx  0.213850461E+03  0.106914972E+03  0.249924731E+01
    11
 # iter = 38250  time[fs]=38.25000
   N  0.163041217E-01 -0.587280227E+01  0.250008581E+01
   N -0.245254971E+03  0.174794436E+04  0.249964778E+01
   C -0.267989303E+01  0.434215964E+01  0.250121663E+01
   C  0.327899020E+01  0.549659758E+01  0.249947018E+01
   C -0.518696224E+01 -0.765601521E+00  0.249890426E+01
   C  0.414163899E+01 -0.203888425E+01  0.249980838E+01
   H -0.146916053E+02  0.212109690E+02  0.249228576E+01
   H  0.102091571E+02  0.223576617E+02  0.249045528E+01
   H -0.262184098E+02 -0.332639580E+01  0.248623356E+01
   H -0.163593283E+02  0.105639118E+03  0.249506672E+01
  Xx  0.215268823E+03  0.107633217E+03  0.249924218E+01
    11
 # iter = 38500  time[fs]=38.50000
   N  0.216503030E-01 -0.591085369E+01  0.250008560E+01
   N -0.246879501E+03  0.175949864E+04  0.249964543E+01
   C -0.269615603E+01  0.436717645E+01  0.250121990E+01
   C  0.330118532E+01  0.553003726E+01  0.249946698E+01
   C -0.521889944E+01 -0.773436644E+00  0.249890253E+01
   C  0.416783199E+01 -0.205730158E+01  0.249980853E+01
   H -0.147944498E+02  0.213560006E+02  0.249222578E+01
   H  0.102825344E+02  0.225142477E+02  0.249037650E+01
   H -0.264001029E+02 -0.335360986E+01  0.248612449E+01
   H -0.164843444E+02  0.106346001E+03  0.249503226E+01
  Xx  0.216687184E+03  0.108351463E+03  0.249923706E+01
    11
 # iter = 38750  time[fs]=38.75000
   N  0.269693840E-01 -0.594897692E+01  0.250008539E+01
   N -0.248504031E+03  0.177105291E+04  0.249964309E+01
   C -0.271243378E+01  0.439220333E+01  0.250122277E+01
   C  0.332338487E+01  0.556346420E+01  0.249946144E+01
   C -0.525084723E+01 -0.781294275E+00  0.249890338E+01
   C  0.419403691E+01 -0.207573415E+01  0.249980803E+01
   H -0.148973431E+02  0.215010945E+02  0.249216580E+01
   H  0.103559605E+02  0.226709047E+02  0.249029772E+01
   H -0.265818671E+02 -0.338084646E+01  0.248601543E+01
   H -0.166093605E+02  0.107052884E+03  0.249499781E+01
  Xx  0.218105546E+03  0.109069708E+03  0.249923193E+01
    11
 # iter = 39000  time[fs]=39.00000
   N  0.322451160E-01 -0.598717173E+01  0.250008502E+01
   N -0.250128562E+03  0.178260718E+04  0.249964074E+01
   C -0.272871033E+01  0.441726073E+01  0.250122737E+01
   C  0.334561895E+01  0.559687595E+01  0.249945964E+01
   C -0.528281812E+01 -0.789154453E+00  0.249890166E+01
   C  0.422028303E+01 -0.209414953E+01  0.249980830E+01
   H -0.150002853E+02  0.216462505E+02  0.249210582E+01
   H  0.104294355E+02  0.228276327E+02  0.249021894E+01
   H -0.267637024E+02 -0.340810527E+01  0.248590637E+01
   H -0.167343765E+02  0.107759767E+03  0.249496336E+01
  Xx  0.219523907E+03  0.109787953E+03  0.249922680E+01
    11
 # iter = 39250  time[fs]=39.25000
   N  0.374660875E-01 -0.602539860E+01  0.250008441E+01
   N -0.251753092E+03  0.179416145E+04  0.249963840E+01
   C -0.274502111E+01  0.444232793E+01  0.250122963E+01
   C  0.336786145E+01  0.563035034E+01  0.249945536E+01
   C -0.531482060E+01 -0.797050581E+00  0.249890276E+01
   C  0.424658259E+01 -0.211259794E+01  0.249980779E+01
   H -0.151032763E+02  0.217914686E+02  0.249204584E+01
   H  0.105029593E+02  0.229844319E+02  0.249014015E+01
   H -0.269456087E+02 -0.343538628E+01  0.248579730E+01
   H -0.168593926E+02  0.108466650E+03  0.249492890E+01
  Xx  0.220942269E+03  0.110506199E+03  0.249922168E+01
    11
 # iter = 39500  time[fs]=39.50000
   N  0.426366254E-01 -0.606361696E+01  0.250008366E+01
   N -0.253377623E+03  0.180571572E+04  0.249963605E+01
   C -0.276132064E+01  0.446742445E+01  0.250123383E+01
   C  0.339012639E+01  0.566378533E+01  0.249945058E+01
   C -0.534681564E+01 -0.804935888E+00  0.249890280E+01
   C  0.427288528E+01 -0.213102807E+01  0.249980796E+01
   H -0.152063162E+02  0.219367490E+02  0.249198586E+01
   H  0.105765320E+02  0.231413020E+02  0.249006137E+01
   H -0.271275861E+02 -0.346268908E+01  0.248568824E+01
   H -0.169844087E+02  0.109173533E+03  0.249489445E+01
  Xx  0.222360630E+03  0.111224444E+03  0.249921655E+01
    11
 # iter = 39750  time[fs]=39.75000
   N  0.477617538E-01 -0.610181529E+01  0.250008275E+01
   N -0.255002153E+03  0.181726999E+04  0.249963371E+01
   C -0.277764348E+01  0.449253452E+01  0.250123675E+01
   C  0.341243781E+01  0.569725064E+01  0.249944901E+01
   C -0.537885095E+01 -0.812853195E+00  0.249890269E+01
   C  0.429924497E+01 -0.214947826E+01  0.249980815E+01
   H -0.153094027E+02  0.220820915E+02  0.249192588E+01
   H  0.106501535E+02  0.232982432E+02  0.248998259E+01
   H -0.273096345E+02 -0.349001298E+01  0.248557917E+01
   H -0.171094248E+02  0.109880416E+03  0.249486000E+01
  Xx  0.223778992E+03  0.111942690E+03  0.249921142E+01
    11
 # iter = 40000  time[fs]=40.00000
   N  0.528333024E-01 -0.614001594E+01  0.250008174E+01
   N -0.256626683E+03  0.182882427E+04  0.249963136E+01
   C -0.279397006E+01  0.451766751E+01  0.250123937E+01
   C  0.343474752E+01  0.573075450E+01  0.249944397E+01
   C -0.541088926E+01 -0.820774044E+00  0.249890456E+01
   C  0.432561660E+01 -0.216794577E+01  0.249980776E+01
   H -0.154125335E+02  0.222274962E+02  0.249186591E+01
   H  0.107238212E+02  0.234552555E+02  0.248990381E+01
   H -0.274917529E+02 -0.351735797E+01  0.248547011E+01
   H -0.172344409E+02  0.110587299E+03  0.249482554E+01
  Xx  0.225197353E+03  0.112660935E+03  0.249920630E+01
    11
 # iter = 40250  time[fs]=40.25000
   N  0.578401342E-01 -0.617825293E+01  0.250008063E+01
   N -0.258251214E+03  0.184037854E+04  0.249962902E+01
   C -0.281028850E+01  0.454280150E+01  0.250124329E+01
   C  0.345711488E+01  0.576422409E+01  0.249944017E+01
   C -0.544296954E+01 -0.828711575E+00  0.249890368E+01
   C  0.435201010E+01 -0.218640379E+01  0.249980802E+01
   H -0.155157088E+02  0.223729630E+02  0.249180593E+01
   H  0.107975333E+02  0.236123383E+02  0.248982503E+01
   H -0.276739347E+02 -0.354472406E+01  0.248536105E+01
   H -0.173594570E+02  0.111294181E+03  0.249479109E+01
  Xx  0.226615715E+03  0.113379181E+03  0.249920117E+01
    11
 # iter = 40500  time[fs]=40.50000
   N  0.627855005E-01 -0.621655104E+01  0.250007938E+01
   N -0.259875744E+03  0.185193281E+04  0.249962667E+01
   C -0.282663040E+01  0.456795344E+01  0.250124486E+01
   C  0.347950238E+01  0.579773836E+01  0.249943806E+01
   C -0.547506986E+01 -0.836670007E+00  0.249890588E+01
   C  0.437844553E+01 -0.220491598E+01  0.249980731E+01
   H -0.156189285E+02  0.225184920E+02  0.249174595E+01
   H  0.108712898E+02  0.237694850E+02  0.248974625E+01
   H -0.278561786E+02 -0.357211124E+01  0.248525198E+01
   H -0.174844731E+02  0.112001064E+03  0.249475664E+01
  Xx  0.228034076E+03  0.114097426E+03  0.249919604E+01
    11
 # iter = 40750  time[fs]=40.75000
   N  0.676786165E-01 -0.625490883E+01  0.250007811E+01
   N -0.261500274E+03  0.186348708E+04  0.249962433E+01
   C -0.284294731E+01  0.459310398E+01  0.250124821E+01
   C  0.350190032E+01  0.583125843E+01  0.249943266E+01
   C -0.550718752E+01 -0.844622304E+00  0.249890563E+01
   C  0.440489265E+01 -0.222340398E+01  0.249980773E+01
   H -0.157221926E+02  0.226640797E+02  0.249168597E+01
   H  0.109450907E+02  0.239266939E+02  0.248966747E+01
   H -0.280384847E+02 -0.359951893E+01  0.248514292E+01
   H -0.176094892E+02  0.112707947E+03  0.249472218E+01
  Xx  0.229452438E+03  0.114815672E+03  0.249919092E+01
    11
 # iter = 41000  time[fs]=41.00000
   N  0.725144892E-01 -0.629329188E+01  0.250007662E+01
   N -0.263124805E+03  0.187504135E+04  0.249962198E+01
   C -0.285928719E+01  0.461826618E+01  0.250125029E+01
   C  0.352435888E+01  0.586474974E+01  0.249942994E+01
   C -0.553933902E+01 -0.852616235E+00  0.249890665E+01
   C  0.443138891E+01 -0.224193191E+01  0.249980786E+01
   H -0.158255011E+02  0.228097208E+02  0.249162599E+01
   H  0.110189360E+02  0.240839649E+02  0.248958868E+01
   H -0.282208530E+02 -0.362694659E+01  0.248503386E+01
   H -0.177345052E+02  0.113414830E+03  0.249468773E+01
  Xx  0.230870799E+03  0.115533917E+03  0.249918579E+01
    11
 # iter = 41250  time[fs]=41.25000
   N  0.772844974E-01 -0.633165660E+01  0.250007502E+01
   N -0.264749335E+03  0.188659562E+04  0.249961964E+01
   C -0.287563066E+01  0.464344575E+01  0.250125230E+01
   C  0.354679836E+01  0.589829430E+01  0.249942754E+01
   C -0.557148843E+01 -0.860597914E+00  0.249890846E+01
   C  0.445791983E+01 -0.226046693E+01  0.249980789E+01
   H -0.159288540E+02  0.229554151E+02  0.249156601E+01
   H  0.110928257E+02  0.242412982E+02  0.248950990E+01
   H -0.284032834E+02 -0.365439425E+01  0.248492479E+01
   H -0.178595213E+02  0.114121713E+03  0.249465328E+01
  Xx  0.232289161E+03  0.116252162E+03  0.249918066E+01
    11
 # iter = 41500  time[fs]=41.50000
   N  0.819963377E-01 -0.636998679E+01  0.250007338E+01
   N -0.266373866E+03  0.189814989E+04  0.249961729E+01
   C -0.289197504E+01  0.466862404E+01  0.250125551E+01
   C  0.356926430E+01  0.593182785E+01  0.249942247E+01
   C -0.560366579E+01 -0.868617209E+00  0.249890835E+01
   C  0.448447521E+01 -0.227898890E+01  0.249980870E+01
   H -0.160322513E+02  0.231011628E+02  0.249150603E+01
   H  0.111667598E+02  0.243986936E+02  0.248943112E+01
   H -0.285857760E+02 -0.368186188E+01  0.248481573E+01
   H -0.179845374E+02  0.114828596E+03  0.249461882E+01
  Xx  0.233707522E+03  0.116970408E+03  0.249917554E+01
    11
 # iter = 41750  time[fs]=41.75000
   N  0.866665675E-01 -0.640832435E+01  0.250007148E+01
   N -0.267998396E+03  0.190970417E+04  0.249961495E+01
   C -0.290834314E+01  0.469384248E+01  0.250125646E+01
   C  0.359176940E+01  0.596536789E+01  0.249942053E+01
   C -0.563585010E+01 -0.876635847E+00  0.249891162E+01
   C  0.451107891E+01 -0.229754925E+01  0.249980860E+01
   H -0.161356930E+02  0.232469637E+02  0.249144606E+01
   H  0.112407384E+02  0.245561511E+02  0.248935234E+01
   H -0.287683308E+02 -0.370934935E+01  0.248470666E+01
   H -0.181095535E+02  0.115535479E+03  0.249458437E+01
  Xx  0.235125884E+03  0.117688653E+03  0.249917041E+01
    11
 # iter = 42000  time[fs]=42.00000
   N  0.913011195E-01 -0.644672994E+01  0.250006939E+01
   N -0.269622926E+03  0.192125844E+04  0.249961260E+01
   C -0.292471454E+01  0.471905485E+01  0.250125919E+01
   C  0.361424607E+01  0.599895672E+01  0.249941770E+01
   C -0.566806325E+01 -0.884676363E+00  0.249891162E+01
   C  0.453770061E+01 -0.231606929E+01  0.249980964E+01
   H -0.162391792E+02  0.233928179E+02  0.249138608E+01
   H  0.113147586E+02  0.247136709E+02  0.248927356E+01
   H -0.289509478E+02 -0.373685583E+01  0.248459760E+01
   H -0.182345696E+02  0.116242362E+03  0.249454992E+01
  Xx  0.236544245E+03  0.118406899E+03  0.249916528E+01
    11
 # iter = 42250  time[fs]=42.25000
   N  0.958898997E-01 -0.648521097E+01  0.250006720E+01
   N -0.271247457E+03  0.193281271E+04  0.249961026E+01
   C -0.294110565E+01  0.474430856E+01  0.250126060E+01
   C  0.363678849E+01  0.603252430E+01  0.249941287E+01
   C -0.570029907E+01 -0.892744140E+00  0.249891433E+01
   C  0.456434692E+01 -0.233461956E+01  0.249980977E+01
   H -0.163427097E+02  0.235387254E+02  0.249132610E+01
   H  0.113888189E+02  0.248712528E+02  0.248919478E+01
   H -0.291336269E+02 -0.376438119E+01  0.248448854E+01
   H -0.183595857E+02  0.116949245E+03  0.249451546E+01
  Xx  0.237962607E+03  0.119125144E+03  0.249916016E+01
    11
 # iter = 42500  time[fs]=42.50000
   N  0.100428918E+00 -0.652372474E+01  0.250006502E+01
   N -0.272871987E+03  0.194436698E+04  0.249960791E+01
   C -0.295751447E+01  0.476956744E+01  0.250126186E+01
   C  0.365932961E+01  0.606610403E+01  0.249941159E+01
   C -0.573255047E+01 -0.900811144E+00  0.249891620E+01
   C  0.459103371E+01 -0.235316063E+01  0.249981024E+01
   H -0.164462847E+02  0.236846862E+02  0.249126612E+01
   H  0.114629191E+02  0.250288969E+02  0.248911600E+01
   H -0.293163682E+02 -0.379192541E+01  0.248437947E+01
   H -0.184846018E+02  0.117656128E+03  0.249448101E+01
  Xx  0.239380968E+03  0.119843390E+03  0.249915503E+01
    11
 # iter = 42750  time[fs]=42.75000
   N  0.104934313E+00 -0.656222423E+01  0.250006278E+01
   N -0.274496518E+03  0.195592125E+04  0.249960557E+01
   C -0.297393452E+01  0.479482362E+01  0.250126394E+01
   C  0.368188814E+01  0.609971669E+01  0.249940832E+01
   C -0.576483494E+01 -0.908926783E+00  0.249891739E+01
   C  0.461771524E+01 -0.237169768E+01  0.249981118E+01
   H -0.165499040E+02  0.238307003E+02  0.249120614E+01
   H  0.115370592E+02  0.251866032E+02  0.248903721E+01
   H -0.294991717E+02 -0.381948851E+01  0.248427041E+01
   H -0.186096179E+02  0.118363010E+03  0.249444656E+01
  Xx  0.240799330E+03  0.120561635E+03  0.249914990E+01
    11
 # iter = 43000  time[fs]=43.00000
   N  0.109422060E+00 -0.660069532E+01  0.250006041E+01
   N -0.276121048E+03  0.196747552E+04  0.249960322E+01
   C -0.299037379E+01  0.482010417E+01  0.250126397E+01
   C  0.370451429E+01  0.613329743E+01  0.249940399E+01
   C -0.579712752E+01 -0.917033830E+00  0.249892130E+01
   C  0.464445119E+01 -0.239026433E+01  0.249981120E+01
   H -0.166535676E+02  0.239767676E+02  0.249114616E+01
   H  0.116112394E+02  0.253443716E+02  0.248895843E+01
   H -0.296820374E+02 -0.384707014E+01  0.248416134E+01
   H -0.187346339E+02  0.119069893E+03  0.249441210E+01
  Xx  0.242217691E+03  0.121279881E+03  0.249914478E+01
    11
 # iter = 43250  time[fs]=43.25000
   N  0.113887228E+00 -0.663916414E+01  0.250005805E+01
   N -0.277745578E+03  0.197902980E+04  0.249960088E+01
   C -0.300682242E+01  0.484536339E+01  0.250126583E+01
   C  0.372712098E+01  0.616691166E+01  0.249940339E+01
   C -0.582943807E+01 -0.925189509E+00  0.249892158E+01
   C  0.467120197E+01 -0.240880952E+01  0.249981247E+01
   H -0.167572692E+02  0.241228883E+02  0.249108618E+01
   H  0.116854595E+02  0.255022022E+02  0.248887965E+01
   H -0.298649651E+02 -0.387466956E+01  0.248405228E+01
   H -0.188596500E+02  0.119776776E+03  0.249437765E+01
  Xx  0.243636053E+03  0.121998126E+03  0.249913965E+01
    11
 # iter = 43500  time[fs]=43.50000
   N  0.118323214E+00 -0.667766875E+01  0.250005566E+01
   N -0.279370109E+03  0.199058407E+04  0.249959853E+01
   C -0.302327090E+01  0.487065376E+01  0.250126596E+01
   C  0.374977815E+01  0.620054985E+01  0.249939943E+01
   C -0.586175598E+01 -0.933352193E+00  0.249892573E+01
   C  0.469798248E+01 -0.242739538E+01  0.249981258E+01
   H -0.168610064E+02  0.242690622E+02  0.249102620E+01
   H  0.117597195E+02  0.256600950E+02  0.248880087E+01
   H -0.300479491E+02 -0.390228674E+01  0.248394322E+01
   H -0.189846661E+02  0.120483659E+03  0.249434320E+01
  Xx  0.245054414E+03  0.122716371E+03  0.249913452E+01
    11
 # iter = 43750  time[fs]=43.75000
   N  0.122745900E+00 -0.671623414E+01  0.250005317E+01
   N -0.280994639E+03  0.200213834E+04  0.249959619E+01
   C -0.303974557E+01  0.489593528E+01  0.250126625E+01
   C  0.377246276E+01  0.623416699E+01  0.249939607E+01
   C -0.589409141E+01 -0.941541169E+00  0.249892749E+01
   C  0.472482011E+01 -0.244597641E+01  0.249981352E+01
   H -0.169647792E+02  0.244152895E+02  0.249096623E+01
   H  0.118340196E+02  0.258180489E+02  0.248872209E+01
   H -0.302309864E+02 -0.392992169E+01  0.248383415E+01
   H -0.191096822E+02  0.121190542E+03  0.249430874E+01
  Xx  0.246472776E+03  0.123434617E+03  0.249912940E+01
    11
 # iter = 44000  time[fs]=44.00000
   N  0.127174208E+00 -0.675485380E+01  0.250005050E+01
   N -0.282619170E+03  0.201369261E+04  0.249959385E+01
   C -0.305620416E+01  0.492123991E+01  0.250126737E+01
   C  0.379513430E+01  0.626783426E+01  0.249939586E+01
   C -0.592644919E+01 -0.949760529E+00  0.249893023E+01
   C  0.475164847E+01 -0.246457891E+01  0.249981436E+01
   H -0.170685874E+02  0.245615700E+02  0.249090625E+01
   H  0.119083596E+02  0.259760572E+02  0.248864331E+01
   H -0.304140770E+02 -0.395757440E+01  0.248372509E+01
   H -0.192346983E+02  0.121897425E+03  0.249427429E+01
  Xx  0.247891137E+03  0.124152862E+03  0.249912427E+01
    11
 # iter = 44250  time[fs]=44.25000
   N  0.131603165E+00 -0.679349228E+01  0.250004782E+01
   N -0.284243700E+03  0.202524688E+04  0.249959150E+01
   C -0.307267563E+01  0.494656657E+01  0.250126646E+01
   C  0.381785895E+01  0.630150029E+01  0.249939113E+01
   C -0.595882700E+01 -0.957978322E+00  0.249893436E+01
   C  0.477854243E+01 -0.248319913E+01  0.249981464E+01
   H -0.171724312E+02  0.247079038E+02  0.249084627E+01
   H  0.119827396E+02  0.261341187E+02  0.248856453E+01
   H -0.305972209E+02 -0.398524477E+01  0.248361602E+01
   H -0.193597144E+02  0.122604308E+03  0.249423984E+01
  Xx  0.249309499E+03  0.124871108E+03  0.249911914E+01
    11
 # iter = 44500  time[fs]=44.50000
   N  0.136026503E+00 -0.683211438E+01  0.250004521E+01
   N -0.285868230E+03  0.203680115E+04  0.249958916E+01
   C -0.308916197E+01  0.497189884E+01  0.250126743E+01
   C  0.384057338E+01  0.633514340E+01  0.249938902E+01
   C -0.599123052E+01 -0.966246037E+00  0.249893542E+01
   C  0.480543922E+01 -0.250181855E+01  0.249981586E+01
   H -0.172763105E+02  0.248542910E+02  0.249078629E+01
   H  0.120571594E+02  0.262922336E+02  0.248848574E+01
   H -0.307804181E+02 -0.401293229E+01  0.248350696E+01
   H -0.194847305E+02  0.123311191E+03  0.249420538E+01
  Xx  0.250727860E+03  0.125589353E+03  0.249911402E+01
    11
 # iter = 44750  time[fs]=44.75000
   N  0.140462156E+00 -0.687070849E+01  0.250004261E+01
   N -0.287492761E+03  0.204835542E+04  0.249958681E+01
   C -0.310562978E+01  0.499725503E+01  0.250126657E+01
   C  0.386330247E+01  0.636884351E+01  0.249938827E+01
   C -0.602365093E+01 -0.974503535E+00  0.249894089E+01
   C  0.483235256E+01 -0.252045537E+01  0.249981591E+01
   H -0.173802254E+02  0.250007276E+02  0.249072631E+01
   H  0.121316162E+02  0.264504017E+02  0.248840696E+01
   H -0.309636686E+02 -0.404063740E+01  0.248339790E+01
   H -0.196097466E+02  0.124018074E+03  0.249417093E+01
  Xx  0.252146222E+03  0.126307599E+03  0.249910889E+01
    11
 # iter = 45000  time[fs]=45.00000
   N  0.144927157E+00 -0.690930531E+01  0.250003983E+01
   N -0.289117291E+03  0.205990970E+04  0.249958447E+01
   C -0.312213113E+01  0.502261330E+01  0.250126623E+01
   C  0.388607026E+01  0.640251375E+01  0.249938301E+01
   C -0.605608833E+01 -0.982797777E+00  0.249894268E+01
   C  0.485931695E+01 -0.253909107E+01  0.249981747E+01
   H -0.174841757E+02  0.251472086E+02  0.249066633E+01
   H  0.122061085E+02  0.266086232E+02  0.248832818E+01
   H -0.311469724E+02 -0.406836004E+01  0.248328883E+01
   H -0.197347626E+02  0.124724957E+03  0.249413648E+01
  Xx  0.253564583E+03  0.127025844E+03  0.249910376E+01
    11
 # iter = 45250  time[fs]=45.25000
   N  0.149415776E+00 -0.694795930E+01  0.250003702E+01
   N -0.290741822E+03  0.207146397E+04  0.249958212E+01
   C -0.313861013E+01  0.504798366E+01  0.250126612E+01
   C  0.390883197E+01  0.643619900E+01  0.249938218E+01
   C -0.608853298E+01 -0.991103534E+00  0.249894740E+01
   C  0.488625755E+01 -0.255773018E+01  0.249981826E+01
   H -0.175881616E+02  0.252937341E+02  0.249060635E+01
   H  0.122806363E+02  0.267668979E+02  0.248824940E+01
   H -0.313303294E+02 -0.409609853E+01  0.248317977E+01
   H -0.198597787E+02  0.125431840E+03  0.249410202E+01
  Xx  0.254982945E+03  0.127744089E+03  0.249909864E+01
    11
 # iter = 45500  time[fs]=45.50000
   N  0.153923093E+00 -0.698668487E+01  0.250003417E+01
   N -0.292366352E+03  0.208301824E+04  0.249957978E+01
   C -0.315512488E+01  0.507335670E+01  0.250126442E+01
   C  0.393164233E+01  0.646993726E+01  0.249937997E+01
   C -0.612099353E+01 -0.999417075E+00  0.249895157E+01
   C  0.491327276E+01 -0.257636543E+01  0.249981917E+01
   H -0.176921831E+02  0.254403040E+02  0.249054637E+01
   H  0.123551997E+02  0.269252260E+02  0.248817062E+01
   H -0.315137398E+02 -0.412385256E+01  0.248307071E+01
   H -0.199847948E+02  0.126138722E+03  0.249406757E+01
  Xx  0.256401306E+03  0.128462335E+03  0.249909351E+01
    11
 # iter = 45750  time[fs]=45.75000
   N  0.158466017E+00 -0.702544349E+01  0.250003114E+01
   N -0.293990882E+03  0.209457251E+04  0.249957743E+01
   C -0.317164577E+01  0.509874083E+01  0.250126486E+01
   C  0.395446947E+01  0.650363503E+01  0.249937505E+01
   C -0.615346805E+01 -0.100776760E+01  0.249895419E+01
   C  0.494028838E+01 -0.259500438E+01  0.249982064E+01
   H -0.177962400E+02  0.255869182E+02  0.249048640E+01
   H  0.124297985E+02  0.270836073E+02  0.248809184E+01
   H -0.316972034E+02 -0.415162213E+01  0.248296164E+01
   H -0.201098109E+02  0.126845605E+03  0.249403312E+01
  Xx  0.257819668E+03  0.129180580E+03  0.249908838E+01
    11
 # iter = 46000  time[fs]=46.00000
   N  0.163061898E+00 -0.706418720E+01  0.250002810E+01
   N -0.295615413E+03  0.210612678E+04  0.249957509E+01
   C -0.318816838E+01  0.512412205E+01  0.250126305E+01
   C  0.397731810E+01  0.653737614E+01  0.249937505E+01
   C -0.618596735E+01 -0.101610034E+01  0.249896052E+01
   C  0.496734449E+01 -0.261363091E+01  0.249982079E+01
   H -0.179003325E+02  0.257335769E+02  0.249042642E+01
   H  0.125044330E+02  0.272420419E+02  0.248801306E+01
   H -0.318807204E+02 -0.417940725E+01  0.248285258E+01
   H -0.202348270E+02  0.127552488E+03  0.249399866E+01
  Xx  0.259238029E+03  0.129898826E+03  0.249908326E+01
    11
 # iter = 46250  time[fs]=46.25000
   N  0.167706992E+00 -0.710290589E+01  0.250002507E+01
   N -0.297239943E+03  0.211768105E+04  0.249957274E+01
   C -0.320473421E+01  0.514952518E+01  0.250126239E+01
   C  0.400020047E+01  0.657113645E+01  0.249937160E+01
   C -0.621848792E+01 -0.102447083E+01  0.249896251E+01
   C  0.499445279E+01 -0.263227632E+01  0.249982263E+01
   H -0.180044605E+02  0.258802800E+02  0.249036644E+01
   H  0.125791029E+02  0.274005298E+02  0.248793427E+01
   H -0.320642906E+02 -0.420720791E+01  0.248274351E+01
   H -0.203598431E+02  0.128259371E+03  0.249396421E+01
  Xx  0.260656391E+03  0.130617071E+03  0.249907813E+01
    11
 # iter = 46500  time[fs]=46.50000
   N  0.172392441E+00 -0.714163365E+01  0.250002194E+01
   N -0.298864474E+03  0.212923533E+04  0.249957040E+01
   C -0.322128572E+01  0.517493404E+01  0.250126158E+01
   C  0.402309283E+01  0.660485112E+01  0.249936792E+01
   C -0.625103128E+01 -0.103283341E+01  0.249896881E+01
   C  0.502155025E+01 -0.265091375E+01  0.249982313E+01
   H -0.181086240E+02  0.260270275E+02  0.249030646E+01
   H  0.126538083E+02  0.275590710E+02  0.248785549E+01
   H -0.322479141E+02 -0.423502412E+01  0.248263445E+01
   H -0.204848592E+02  0.128966254E+03  0.249392975E+01
  Xx  0.262074752E+03  0.131335317E+03  0.249907301E+01
    11
 # iter = 46750  time[fs]=46.75000
   N  0.177125369E+00 -0.718039997E+01  0.250001859E+01
   N -0.300489004E+03  0.214078960E+04  0.249956805E+01
   C -0.323787132E+01  0.520036933E+01  0.250125923E+01
   C  0.404601102E+01  0.663863218E+01  0.249936809E+01
   C -0.628359698E+01 -0.104120678E+01  0.249897250E+01
   C  0.504871338E+01 -0.266956501E+01  0.249982425E+01
   H -0.182128231E+02  0.261738194E+02  0.249024648E+01
   H  0.127285493E+02  0.277176654E+02  0.248777671E+01
   H -0.324315909E+02 -0.426285586E+01  0.248252539E+01
   H -0.206098753E+02  0.129673137E+03  0.249389530E+01
  Xx  0.263493114E+03  0.132053562E+03  0.249906788E+01
    11
 # iter = 47000  time[fs]=47.00000
   N  0.181920358E+00 -0.721921356E+01  0.250001527E+01
   N -0.302113534E+03  0.215234387E+04  0.249956571E+01
   C -0.325445915E+01  0.522582928E+01  0.250125885E+01
   C  0.406893641E+01  0.667239585E+01  0.249936382E+01
   C -0.631616671E+01 -0.104959659E+01  0.249897683E+01
   C  0.507587337E+01 -0.268823526E+01  0.249982548E+01
   H -0.183170577E+02  0.263206557E+02  0.249018650E+01
   H  0.128033258E+02  0.278763132E+02  0.248769793E+01
   H -0.326153210E+02 -0.429070315E+01  0.248241632E+01
   H -0.207348913E+02  0.130380020E+03  0.249386085E+01
  Xx  0.264911475E+03  0.132771808E+03  0.249906275E+01
    11
 # iter = 47250  time[fs]=47.25000
   N  0.186778578E+00 -0.725807303E+01  0.250001204E+01
   N -0.303738065E+03  0.216389814E+04  0.249956336E+01
   C -0.327105307E+01  0.525128515E+01  0.250125594E+01
   C  0.409187910E+01  0.670615961E+01  0.249936160E+01
   C -0.634875774E+01 -0.105796902E+01  0.249898354E+01
   C  0.510306156E+01 -0.270689356E+01  0.249982582E+01
   H -0.184213278E+02  0.264675365E+02  0.249012652E+01
   H  0.128781379E+02  0.280350143E+02  0.248761915E+01
   H -0.327991044E+02 -0.431856599E+01  0.248230726E+01
   H -0.208599074E+02  0.131086903E+03  0.249382639E+01
  Xx  0.266329837E+03  0.133490053E+03  0.249905763E+01
    11
 # iter = 47500  time[fs]=47.50000
   N  0.191693490E+00 -0.729695962E+01  0.250000866E+01
   N -0.305362595E+03  0.217545241E+04  0.249956102E+01
   C -0.328766602E+01  0.527678256E+01  0.250125474E+01
   C  0.411483672E+01  0.673999091E+01  0.249936118E+01
   C -0.638135574E+01 -0.106637839E+01  0.249898639E+01
   C  0.513029098E+01 -0.272559641E+01  0.249982778E+01
   H -0.185256334E+02  0.266144616E+02  0.249006655E+01
   H  0.129529855E+02  0.281937686E+02  0.248754037E+01
   H -0.329829411E+02 -0.434644436E+01  0.248219819E+01
   H -0.209849235E+02  0.131793786E+03  0.249379194E+01
  Xx  0.267748198E+03  0.134208298E+03  0.249905250E+01
    11
 # iter = 47750  time[fs]=47.75000
   N  0.196665211E+00 -0.733584266E+01  0.250000531E+01
   N -0.306987126E+03  0.218700668E+04  0.249955867E+01
   C -0.330426606E+01  0.530226261E+01  0.250125273E+01
   C  0.413780578E+01  0.677378375E+01  0.249935670E+01
   C -0.641398231E+01 -0.107476708E+01  0.249899406E+01
   C  0.515752183E+01 -0.274427231E+01  0.249982811E+01
   H -0.186299746E+02  0.267614312E+02  0.249000657E+01
   H  0.130278686E+02  0.283525763E+02  0.248746159E+01
   H -0.331668311E+02 -0.437433828E+01  0.248208913E+01
   H -0.211099396E+02  0.132500669E+03  0.249375749E+01
  Xx  0.269166560E+03  0.134926544E+03  0.249904737E+01
    11
 # iter = 48000  time[fs]=48.00000
   N  0.201695405E+00 -0.737470776E+01  0.250000180E+01
   N -0.308611656E+03  0.219856095E+04  0.249955633E+01
   C -0.332087910E+01  0.532776245E+01  0.250124952E+01
   C  0.416081336E+01  0.680760474E+01  0.249935564E+01
   C -0.644663053E+01 -0.108317923E+01  0.249899729E+01
   C  0.518481614E+01 -0.276296959E+01  0.249982965E+01
   H -0.187343513E+02  0.269084451E+02  0.248994659E+01
   H  0.131027872E+02  0.285114372E+02  0.248738280E+01
   H -0.333507743E+02 -0.440224774E+01  0.248198007E+01
   H -0.212349557E+02  0.133207552E+03  0.249372303E+01
  Xx  0.270584921E+03  0.135644789E+03  0.249904225E+01
    11
 # iter = 48250  time[fs]=48.25000
   N  0.206780564E+00 -0.741359041E+01  0.249999848E+01
   N -0.310236186E+03  0.221011523E+04  0.249955398E+01
   C -0.333749715E+01  0.535326753E+01  0.250124845E+01
   C  0.418382376E+01  0.684146087E+01  0.249935439E+01
   C -0.647929847E+01 -0.109158760E+01  0.249900356E+01
   C  0.521213191E+01 -0.278166624E+01  0.249983077E+01
   H -0.188387635E+02  0.270555035E+02  0.248988661E+01
   H  0.131777413E+02  0.286703514E+02  0.248730402E+01
   H -0.335347709E+02 -0.443017275E+01  0.248187100E+01
   H -0.213599718E+02  0.133914434E+03  0.249368858E+01
  Xx  0.272003283E+03  0.136363035E+03  0.249903712E+01
    11
 # iter = 48500  time[fs]=48.50000
   N  0.211912802E+00 -0.745254044E+01  0.249999502E+01
   N -0.311860717E+03  0.222166950E+04  0.249955164E+01
   C -0.335411305E+01  0.537876592E+01  0.250124448E+01
   C  0.420687773E+01  0.687527273E+01  0.249935026E+01
   C -0.651200192E+01 -0.109999563E+01  0.249900998E+01
   C  0.523948888E+01 -0.280032879E+01  0.249983148E+01
   H -0.189432112E+02  0.272026063E+02  0.248982663E+01
   H  0.132527310E+02  0.288293189E+02  0.248722524E+01
   H -0.337188207E+02 -0.445811221E+01  0.248176194E+01
   H -0.214849879E+02  0.134621317E+03  0.249365413E+01
  Xx  0.273421644E+03  0.137081280E+03  0.249903199E+01
    11
 # iter = 48750  time[fs]=48.75000
   N  0.217088666E+00 -0.749156162E+01  0.249999158E+01
   N -0.313485247E+03  0.223322377E+04  0.249954929E+01
   C -0.337073764E+01  0.540431104E+01  0.250124263E+01
   C  0.422995248E+01  0.690914573E+01  0.249934987E+01
   C -0.654471212E+01 -0.110842855E+01  0.249901399E+01
   C  0.526689505E+01 -0.281902543E+01  0.249983352E+01
   H -0.190476945E+02  0.273497534E+02  0.248976665E+01
   H  0.133277562E+02  0.289883398E+02  0.248714646E+01
   H -0.339029239E+02 -0.448606499E+01  0.248165288E+01
   H -0.216100040E+02  0.135328200E+03  0.249361967E+01
  Xx  0.274840006E+03  0.137799526E+03  0.249902687E+01
    11
 # iter = 49000  time[fs]=49.00000
   N  0.222309544E+00 -0.753061631E+01  0.249998826E+01
   N -0.315109778E+03  0.224477804E+04  0.249954695E+01
   C -0.338737692E+01  0.542984021E+01  0.250123974E+01
   C  0.425303352E+01  0.694302245E+01  0.249934775E+01
   C -0.657745511E+01 -0.111684319E+01  0.249902245E+01
   C  0.529431842E+01 -0.283766659E+01  0.249983403E+01
   H -0.191522133E+02  0.274969450E+02  0.248970667E+01
   H  0.134028169E+02  0.291474138E+02  0.248706768E+01
   H -0.340870803E+02 -0.451403109E+01  0.248154381E+01
   H -0.217350200E+02  0.136035083E+03  0.249358522E+01
  Xx  0.276258367E+03  0.138517771E+03  0.249902174E+01
    11
 # iter = 49250  time[fs]=49.25000
   N  0.227568442E+00 -0.756968109E+01  0.249998489E+01
   N -0.316734308E+03  0.225633231E+04  0.249954460E+01
   C -0.340401988E+01  0.545541756E+01  0.250123610E+01
   C  0.427616766E+01  0.697689569E+01  0.249934425E+01
   C -0.661020537E+01 -0.112528992E+01  0.249902570E+01
   C  0.532178506E+01 -0.285632844E+01  0.249983606E+01
   H -0.192567677E+02  0.276441810E+02  0.248964669E+01
   H  0.134779132E+02  0.293065412E+02  0.248698890E+01
   H -0.342712900E+02 -0.454201051E+01  0.248143475E+01
   H -0.218600361E+02  0.136741966E+03  0.249355077E+01
  Xx  0.277676729E+03  0.139236017E+03  0.249901661E+01
    11
 # iter = 49500  time[fs]=49.50000
   N  0.232852336E+00 -0.760876328E+01  0.249998156E+01
   N -0.318358838E+03  0.226788658E+04  0.249954226E+01
   C -0.342069413E+01  0.548100352E+01  0.250123435E+01
   C  0.429928873E+01  0.701083214E+01  0.249934422E+01
   C -0.664298257E+01 -0.113371858E+01  0.249903408E+01
   C  0.534928766E+01 -0.287496933E+01  0.249983724E+01
   H -0.193613575E+02  0.277914614E+02  0.248958672E+01
   H  0.135530450E+02  0.294657219E+02  0.248691012E+01
   H -0.344555530E+02 -0.457000326E+01  0.248132568E+01
   H -0.219850522E+02  0.137448849E+03  0.249351631E+01
  Xx  0.279095090E+03  0.139954262E+03  0.249901149E+01
    11
 # iter = 49750  time[fs]=49.75000
   N  0.238152166E+00 -0.764788729E+01  0.249997820E+01
   N -0.319983369E+03  0.227944086E+04  0.249953992E+01
   C -0.343736805E+01  0.550660575E+01  0.250122952E+01
   C  0.432243670E+01  0.704475123E+01  0.249934139E+01
   C -0.667579425E+01 -0.114217322E+01  0.249903973E+01
   C  0.537681066E+01 -0.289359045E+01  0.249983862E+01
   H -0.194659829E+02  0.279387863E+02  0.248952674E+01
   H  0.136282123E+02  0.296249559E+02  0.248683133E+01
   H -0.346398693E+02 -0.459800933E+01  0.248121662E+01
   H -0.221100683E+02  0.138155732E+03  0.249348186E+01
  Xx  0.280513452E+03  0.140672507E+03  0.249900636E+01
    11
 # iter = 50000  time[fs]=50.00000
   N  0.243464025E+00 -0.768706005E+01  0.249997491E+01
   N -0.321607899E+03  0.229099513E+04  0.249953757E+01
   C -0.345407314E+01  0.553223883E+01  0.250122695E+01
   C  0.434561735E+01  0.707868390E+01  0.249933879E+01
   C -0.670862508E+01 -0.115063014E+01  0.249904543E+01
   C  0.540439800E+01 -0.291223999E+01  0.249984074E+01
   H -0.195706438E+02  0.280861555E+02  0.248946676E+01
   H  0.137034151E+02  0.297842431E+02  0.248675255E+01
   H -0.348242389E+02 -0.462602872E+01  0.248110756E+01
   H -0.222350844E+02  0.138862615E+03  0.249344741E+01
  Xx  0.281931813E+03  0.141390753E+03  0.249900123E+01
