    11
 # iter =     0  time[fs]= 0.00000
   N -0.668466338E+00 -0.116463086E+01  0.250000000E+01
   N  0.668466338E+00 -0.116463086E+01  0.250000000E+01
   C -0.692277627E+00  0.124916000E+01  0.250000000E+01
   C  0.692277627E+00  0.124916000E+01  0.250000000E+01
   C -0.132315667E+01  0.433975300E-03  0.250000000E+01
   C  0.132315667E+01  0.433975300E-03  0.250000000E+01
   H -0.127180384E+01  0.216832769E+01  0.250000000E+01
   H  0.127180384E+01  0.216832769E+01  0.250000000E+01
   H -0.240769469E+01 -0.832907948E-01  0.250000000E+01
   H  0.240769469E+01 -0.832907948E-01  0.250000000E+01
  Xx  0.692277627E+00  0.124916000E+01  0.200000000E+02
    11
 # iter =   250  time[fs]= 0.25000
   N -0.668479288E+00 -0.116465141E+01  0.249999771E+01
   N  0.668478422E+00 -0.116465147E+01  0.249999752E+01
   C -0.692272987E+00  0.124913879E+01  0.249999638E+01
   C  0.692271826E+00  0.124913875E+01  0.249999612E+01
   C -0.132313046E+01  0.427652419E-03  0.249999661E+01
   C  0.132312927E+01  0.427555692E-03  0.249999617E+01
   H -0.127181385E+01  0.216833134E+01  0.249997050E+01
   H  0.127180998E+01  0.216833076E+01  0.249996825E+01
   H -0.240778856E+01 -0.832988092E-01  0.249997406E+01
   H  0.240778474E+01 -0.832992700E-01  0.249997053E+01
  Xx  0.692285472E+00  0.124917307E+01  0.835703896E+01
    11
 # iter =   500  time[fs]= 0.50000
   N -0.668548028E+00 -0.116476243E+01  0.250002785E+01
   N  0.668493972E+00 -0.116483911E+01  0.250003134E+01
   C -0.692569606E+00  0.124911115E+01  0.249999613E+01
   C -0.672840669E+00 -0.141883893E+01 -0.154247507E+01
   C -0.132315155E+01  0.311095111E-03  0.250002527E+01
   C  0.132322571E+01  0.140265902E-03  0.249999911E+01
   H -0.127250705E+01  0.216903481E+01  0.249995121E+01
   H  0.127391556E+01  0.217115979E+01  0.250231238E+01
   H -0.240858447E+01 -0.833587965E-01  0.249997155E+01
   H  0.240897045E+01 -0.835644532E-01  0.249995101E+01
  Xx  0.175021510E+01  0.331660123E+01  0.210615727E+00
    11
 # iter =   750  time[fs]= 0.75000
   N -0.668795028E+00 -0.116528633E+01  0.250007490E+01
   N  0.668709367E+00 -0.116530961E+01  0.250006807E+01
   C -0.692965071E+00  0.124928616E+01  0.249999323E+01
   C -0.342191561E+01 -0.679164522E+01 -0.967855807E+01
   C -0.132324191E+01  0.127191998E-03  0.250005153E+01
   C  0.132347317E+01 -0.178775679E-03  0.250000711E+01
   H -0.127575873E+01  0.217418988E+01  0.250007440E+01
   H  0.127950474E+01  0.217840276E+01  0.251089512E+01
   H -0.241339265E+01 -0.836828760E-01  0.249997328E+01
   H  0.241537313E+01 -0.842974281E-01  0.250013973E+01
  Xx  0.388161161E+01  0.748179416E+01 -0.439662389E+01
    11
 # iter =  1000  time[fs]= 1.00000
   N -0.669237562E+00 -0.116634973E+01  0.250020932E+01
   N  0.669095313E+00 -0.116614350E+01  0.250005293E+01
   C -0.693210600E+00  0.124954325E+01  0.250000790E+01
   C -0.617080376E+01 -0.121641009E+02 -0.178141622E+02
   C -0.132343054E+01  0.656678485E-04  0.250006406E+01
   C  0.132365300E+01 -0.348240433E-03  0.250002073E+01
   H -0.128141460E+01  0.218410624E+01  0.250035213E+01
   H  0.128631089E+01  0.218787656E+01  0.251968579E+01
   H -0.242329545E+01 -0.843237225E-01  0.249983549E+01
   H  0.242789660E+01 -0.854313907E-01  0.250055502E+01
  Xx  0.601325844E+01  0.116473892E+02 -0.900428741E+01
    11
 # iter =  1250  time[fs]= 1.25000
   N -0.669961603E+00 -0.116791581E+01  0.250038255E+01
   N  0.669848730E+00 -0.116737269E+01  0.250002558E+01
   C -0.693288232E+00  0.124997978E+01  0.250004890E+01
   C -0.891970373E+01 -0.175365791E+02 -0.259497744E+02
   C -0.132380515E+01  0.711819969E-04  0.250013002E+01
   C  0.132383680E+01 -0.280013164E-03  0.250005987E+01
   H -0.128931164E+01  0.219799864E+01  0.250045995E+01
   H  0.129426866E+01  0.219914110E+01  0.252854583E+01
   H -0.243820800E+01 -0.854735002E-01  0.249958162E+01
   H  0.244546774E+01 -0.869052749E-01  0.250094674E+01
  Xx  0.814499052E+01  0.158130746E+02 -0.136120549E+02
    11
 # iter =  1500  time[fs]= 1.50000
   N -0.670847917E+00 -0.116992138E+01  0.250052652E+01
   N  0.670818678E+00 -0.116888983E+01  0.250005197E+01
   C -0.693108735E+00  0.125071358E+01  0.250011946E+01
   C -0.116686102E+02 -0.229090702E+02 -0.340853972E+02
   C -0.132446773E+01 -0.332523962E-04  0.250020930E+01
   C  0.132414208E+01 -0.659170681E-04  0.250011581E+01
   H -0.129916791E+01  0.221549917E+01  0.250057940E+01
   H  0.130323075E+01  0.221242553E+01  0.253739829E+01
   H -0.245806283E+01 -0.875761087E-01  0.249931335E+01
   H  0.246743507E+01 -0.886987377E-01  0.250132624E+01
  Xx  0.102767597E+02  0.199788310E+02 -0.182198788E+02
    11
 # iter =  1750  time[fs]= 1.75000
   N -0.672036892E+00 -0.117220311E+01  0.250064190E+01
   N  0.672112713E+00 -0.117077822E+01  0.250009756E+01
   C -0.692711699E+00  0.125175770E+01  0.250017427E+01
   C -0.144175212E+02 -0.282815702E+02 -0.422210225E+02
   C -0.132525636E+01 -0.292203830E-03  0.250030797E+01
   C  0.132444974E+01  0.389897918E-03  0.250016589E+01
   H -0.131085988E+01  0.223580417E+01  0.250066124E+01
   H  0.131323322E+01  0.222730620E+01  0.254627574E+01
   H -0.248253850E+01 -0.902211667E-01  0.249923011E+01
   H  0.249359538E+01 -0.908945722E-01  0.250169551E+01
  Xx  0.124085516E+02  0.241446314E+02 -0.228277381E+02
    11
 # iter =  2000  time[fs]= 2.00000
   N -0.673484492E+00 -0.117475352E+01  0.250072429E+01
   N  0.673816080E+00 -0.117308517E+01  0.250016441E+01
   C -0.692049510E+00  0.125289689E+01  0.250023738E+01
   C -0.171664362E+02 -0.336540781E+02 -0.503566478E+02
   C -0.132643422E+01 -0.598892092E-03  0.250041503E+01
   C  0.132467955E+01  0.105634731E-02  0.250021494E+01
   H -0.132417370E+01  0.225937663E+01  0.250093082E+01
   H  0.132425059E+01  0.224397509E+01  0.255516232E+01
   H -0.251011444E+01 -0.931104660E-01  0.249934361E+01
   H  0.252379372E+01 -0.941239951E-01  0.250212741E+01
  Xx  0.145403587E+02  0.283104613E+02 -0.274356216E+02
    11
 # iter =  2250  time[fs]= 2.25000
   N -0.675154724E+00 -0.117751876E+01  0.250079030E+01
   N  0.675714150E+00 -0.117600399E+01  0.250028031E+01
   C -0.691225607E+00  0.125436340E+01  0.250031179E+01
   C -0.199153520E+02 -0.390265872E+02 -0.584922731E+02
   C -0.132801260E+01 -0.106912235E-02  0.250053416E+01
   C  0.132498964E+01  0.210125323E-02  0.250026169E+01
   H -0.133920038E+01  0.228493874E+01  0.250097641E+01
   H  0.133636889E+01  0.226262325E+01  0.256414839E+01
   H -0.253989591E+01 -0.962807599E-01  0.249939599E+01
   H  0.255787413E+01 -0.980199726E-01  0.250245543E+01
  Xx  0.166721765E+02  0.324763119E+02 -0.320435230E+02
    11
 # iter =  2500  time[fs]= 2.50000
   N -0.676983923E+00 -0.118054169E+01  0.250084226E+01
   N  0.677802713E+00 -0.117930835E+01  0.250039035E+01
   C -0.690275243E+00  0.125609645E+01  0.250039358E+01
   C -0.226642677E+02 -0.443990964E+02 -0.666278984E+02
   C -0.132989116E+01 -0.163623370E-02  0.250063808E+01
   C  0.132544665E+01  0.335117406E-02  0.250031744E+01
   H -0.135546507E+01  0.231240493E+01  0.250107211E+01
   H  0.134945209E+01  0.228309558E+01  0.257323217E+01
   H -0.257282781E+01 -0.997134928E-01  0.249957567E+01
   H  0.259519933E+01 -0.102101009E+00  0.250278631E+01
  Xx  0.188040032E+02  0.366421803E+02 -0.366514419E+02
    11
 # iter =  2750  time[fs]= 2.75000
   N -0.678965813E+00 -0.118376710E+01  0.250091753E+01
   N  0.680167703E+00 -0.118297144E+01  0.250048610E+01
   C -0.689170866E+00  0.125808189E+01  0.250044931E+01
   C -0.254131834E+02 -0.497716055E+02 -0.747635237E+02
   C -0.133212554E+01 -0.236792219E-02  0.250074173E+01
   C  0.132605559E+01  0.473244332E-02  0.250038350E+01
   H -0.137284895E+01  0.234167150E+01  0.250112266E+01
   H  0.136380362E+01  0.230531431E+01  0.258234156E+01
   H -0.260861925E+01 -0.103580909E+00  0.250002336E+01
   H  0.263470686E+01 -0.106220674E+00  0.250310493E+01
  Xx  0.209358388E+02  0.408080664E+02 -0.412593776E+02
    11
 # iter =  3000  time[fs]= 3.00000
   N -0.681159116E+00 -0.118721920E+01  0.250104155E+01
   N  0.682825009E+00 -0.118705192E+01  0.250056178E+01
   C -0.687963480E+00  0.126037743E+01  0.250053416E+01
   C -0.281620992E+02 -0.551441147E+02 -0.828991490E+02
   C -0.133481793E+01 -0.319839601E-02  0.250081708E+01
   C  0.132694315E+01  0.621887038E-02  0.250044427E+01
   H -0.139115621E+01  0.237286008E+01  0.250137364E+01
   H  0.137921218E+01  0.232922445E+01  0.259155234E+01
   H -0.264654163E+01 -0.107645152E+00  0.250018260E+01
   H  0.267594932E+01 -0.110095987E+00  0.250334975E+01
  Xx  0.230676828E+02  0.449739685E+02 -0.458673175E+02
    11
 # iter =  3250  time[fs]= 3.25000
   N -0.683707960E+00 -0.119103675E+01  0.250121000E+01
   N  0.685864923E+00 -0.119148409E+01  0.250062071E+01
   C -0.686770181E+00  0.126284504E+01  0.250065043E+01
   C -0.309110149E+02 -0.605166238E+02 -0.910347742E+02
   C -0.133789627E+01 -0.401126600E-02  0.250085949E+01
   C  0.132814966E+01  0.786104322E-02  0.250049716E+01
   H -0.141047572E+01  0.240605509E+01  0.250154413E+01
   H  0.139582924E+01  0.235495333E+01  0.260085415E+01
   H -0.268571613E+01 -0.111934219E+00  0.250014271E+01
   H  0.271900347E+01 -0.113970770E+00  0.250368112E+01
  Xx  0.251995290E+02  0.491398733E+02 -0.504752575E+02
    11
 # iter =  3500  time[fs]= 3.50000
   N -0.686462624E+00 -0.119525547E+01  0.250136107E+01
   N  0.689188156E+00 -0.119633852E+01  0.250067648E+01
   C -0.685473050E+00  0.126549466E+01  0.250075388E+01
   C -0.336599307E+02 -0.658891330E+02 -0.991703995E+02
   C -0.134151385E+01 -0.474001254E-02  0.250093778E+01
   C  0.132952991E+01  0.967451561E-02  0.250054428E+01
   H -0.143091744E+01  0.244150079E+01  0.250162874E+01
   H  0.141340869E+01  0.238242716E+01  0.261025704E+01
   H -0.272544641E+01 -0.116175290E+00  0.250015688E+01
   H  0.276415720E+01 -0.117989900E+00  0.250410078E+01
  Xx  0.273313752E+02  0.533057781E+02 -0.550831975E+02
    11
 # iter =  3750  time[fs]= 3.75000
   N -0.689458754E+00 -0.119986531E+01  0.250150726E+01
   N  0.692937600E+00 -0.120148910E+01  0.250072646E+01
   C -0.684051804E+00  0.126838441E+01  0.250086156E+01
   C -0.364088464E+02 -0.712616421E+02 -0.107306025E+03
   C -0.134558898E+01 -0.544749869E-02  0.250101943E+01
   C  0.133091318E+01  0.116009647E-01  0.250058032E+01
   H -0.145207206E+01  0.247850379E+01  0.250164130E+01
   H  0.143205877E+01  0.241146529E+01  0.261971975E+01
   H -0.276633493E+01 -0.120538372E+00  0.250010660E+01
   H  0.281170342E+01 -0.122038499E+00  0.250435522E+01
  Xx  0.294632213E+02  0.574716829E+02 -0.596911374E+02
    11
 # iter =  4000  time[fs]= 4.00000
   N -0.692724866E+00 -0.120481951E+01  0.250166377E+01
   N  0.697005196E+00 -0.120690061E+01  0.250076763E+01
   C -0.682800030E+00  0.127160114E+01  0.250093804E+01
   C -0.391577621E+02 -0.766341513E+02 -0.115441650E+03
   C -0.134992006E+01 -0.609704829E-02  0.250110536E+01
   C  0.133255728E+01  0.134621396E-01  0.250064039E+01
   H -0.147355893E+01  0.251620617E+01  0.250181009E+01
   H  0.145178333E+01  0.244235051E+01  0.262933919E+01
   H -0.280878699E+01 -0.125040441E+00  0.250010561E+01
   H  0.286088824E+01 -0.126083794E+00  0.250479169E+01
  Xx  0.315950675E+02  0.616375877E+02 -0.642990774E+02
    11
 # iter =  4250  time[fs]= 4.25000
   N -0.696221235E+00 -0.121013570E+01  0.250182145E+01
   N  0.701368734E+00 -0.121257014E+01  0.250081604E+01
   C -0.681619233E+00  0.127507704E+01  0.250102667E+01
   C -0.419066779E+02 -0.820066604E+02 -0.123577275E+03
   C -0.135455074E+01 -0.668429031E-02  0.250115816E+01
   C  0.133442422E+01  0.153187999E-01  0.250067997E+01
   H -0.149540712E+01  0.255527446E+01  0.250194799E+01
   H  0.147258091E+01  0.247491122E+01  0.263912841E+01
   H -0.285247870E+01 -0.129754588E+00  0.250009178E+01
   H  0.291197307E+01 -0.129930540E+00  0.250520192E+01
  Xx  0.337269137E+02  0.658034925E+02 -0.689070173E+02
    11
 # iter =  4500  time[fs]= 4.50000
   N -0.699912437E+00 -0.121574861E+01  0.250199103E+01
   N  0.705981607E+00 -0.121844273E+01  0.250084950E+01
   C -0.680395481E+00  0.127878361E+01  0.250110364E+01
   C -0.446555936E+02 -0.873791696E+02 -0.131712901E+03
   C -0.135951807E+01 -0.731239296E-02  0.250122798E+01
   C  0.133634845E+01  0.170809260E-01  0.250073328E+01
   H -0.151779004E+01  0.259575108E+01  0.250205965E+01
   H  0.149426339E+01  0.250920591E+01  0.264897628E+01
   H -0.289734709E+01 -0.134585725E+00  0.250015428E+01
   H  0.296522598E+01 -0.133943922E+00  0.250565128E+01
  Xx  0.358587598E+02  0.699693972E+02 -0.735149573E+02
    11
 # iter =  4750  time[fs]= 4.75000
   N -0.703734697E+00 -0.122174238E+01  0.250221214E+01
   N  0.710872765E+00 -0.122447913E+01  0.250082951E+01
   C -0.679131725E+00  0.128271750E+01  0.250116603E+01
   C -0.474045094E+02 -0.927516787E+02 -0.139848526E+03
   C -0.136476670E+01 -0.776994563E-02  0.250127228E+01
   C  0.133827300E+01  0.188770689E-01  0.250077835E+01
   H -0.154066997E+01  0.263684085E+01  0.250213123E+01
   H  0.151673245E+01  0.254500545E+01  0.265894634E+01
   H -0.294379167E+01 -0.139617110E+00  0.250027977E+01
   H  0.302046388E+01 -0.138155540E+00  0.250618607E+01
  Xx  0.379906060E+02  0.741353020E+02 -0.781228973E+02
    11
 # iter =  5000  time[fs]= 5.00000
   N -0.707687116E+00 -0.122808672E+01  0.250244068E+01
   N  0.715997427E+00 -0.123074049E+01  0.250080569E+01
   C -0.677916461E+00  0.128682249E+01  0.250122868E+01
   C -0.501534251E+02 -0.981241879E+02 -0.147984151E+03
   C -0.137035526E+01 -0.814145933E-02  0.250128794E+01
   C  0.134032261E+01  0.206357559E-01  0.250084429E+01
   H -0.156396701E+01  0.267901550E+01  0.250225046E+01
   H  0.154006182E+01  0.258236081E+01  0.266909746E+01
   H -0.299086635E+01 -0.144805033E+00  0.250031449E+01
   H  0.307749098E+01 -0.142454439E+00  0.250673871E+01
  Xx  0.401224522E+02  0.783012068E+02 -0.827308372E+02
    11
 # iter =  5250  time[fs]= 5.25000
   N -0.711925811E+00 -0.123472209E+01  0.250269272E+01
   N  0.721435852E+00 -0.123714792E+01  0.250077051E+01
   C -0.676796534E+00  0.129108156E+01  0.250130575E+01
   C -0.529023408E+02 -0.103496697E+03 -0.156119777E+03
   C -0.137624604E+01 -0.840057108E-02  0.250129549E+01
   C  0.134259461E+01  0.223953121E-01  0.250088466E+01
   H -0.158749199E+01  0.272219183E+01  0.250244159E+01
   H  0.156433843E+01  0.262114337E+01  0.267932337E+01
   H -0.303840694E+01 -0.150172675E+00  0.250034103E+01
   H  0.313577154E+01 -0.146729680E+00  0.250724441E+01
  Xx  0.422542983E+02  0.824671116E+02 -0.873387772E+02
    11
 # iter =  5500  time[fs]= 5.50000
   N -0.716485614E+00 -0.124163028E+01  0.250293967E+01
   N  0.727155683E+00 -0.124364340E+01  0.250069768E+01
   C -0.675697919E+00  0.129544303E+01  0.250138532E+01
   C -0.556512566E+02 -0.108869206E+03 -0.164255402E+03
   C -0.138236379E+01 -0.861101410E-02  0.250130022E+01
   C  0.134503666E+01  0.241318119E-01  0.250097164E+01
   H -0.161156078E+01  0.276635769E+01  0.250247248E+01
   H  0.158961298E+01  0.266152737E+01  0.268969633E+01
   H -0.308657987E+01 -0.155674622E+00  0.250036904E+01
   H  0.319507291E+01 -0.151053891E+00  0.250771313E+01
  Xx  0.443861445E+02  0.866330164E+02 -0.919467171E+02
    11
 # iter =  5750  time[fs]= 5.75000
   N -0.721421717E+00 -0.124875935E+01  0.250317619E+01
   N  0.733305503E+00 -0.125015924E+01  0.250066358E+01
   C -0.674569552E+00  0.129991607E+01  0.250146469E+01
   C -0.584001723E+02 -0.114241715E+03 -0.172391027E+03
   C -0.138874678E+01 -0.889155264E-02  0.250130623E+01
   C  0.134757302E+01  0.258037880E-01  0.250102954E+01
   H -0.163615061E+01  0.281173966E+01  0.250241680E+01
   H  0.161580371E+01  0.270328070E+01  0.270017612E+01
   H -0.313530743E+01 -0.161451658E+00  0.250041557E+01
   H  0.325560405E+01 -0.155603422E+00  0.250819846E+01
  Xx  0.465179907E+02  0.907989212E+02 -0.965546571E+02