    11
 # iter =     0  time[fs]= 0.00000
   N -0.668466338E+00 -0.116463086E+01  0.250000000E+01
   N  0.668466338E+00 -0.116463086E+01  0.250000000E+01
   C -0.692277627E+00  0.124916000E+01  0.250000000E+01
   C  0.692277627E+00  0.124916000E+01  0.250000000E+01
   C -0.132315667E+01  0.433975300E-03  0.250000000E+01
   C  0.132315667E+01  0.433975300E-03  0.250000000E+01
   H -0.127180384E+01  0.216832769E+01  0.250000000E+01
   H  0.127180384E+01  0.216832769E+01  0.250000000E+01
   H -0.240769469E+01 -0.832907948E-01  0.250000000E+01
   H  0.240769469E+01 -0.832907948E-01  0.250000000E+01
  Xx  0.692277627E+00  0.124916000E+01  0.200000000E+02
    11
 # iter =   250  time[fs]= 0.25000
   N -0.668479288E+00 -0.116465141E+01  0.249999771E+01
   N  0.668478422E+00 -0.116465147E+01  0.249999752E+01
   C -0.692272987E+00  0.124913879E+01  0.249999638E+01
   C  0.692271826E+00  0.124913875E+01  0.249999612E+01
   C -0.132313046E+01  0.427652419E-03  0.249999661E+01
   C  0.132312927E+01  0.427555692E-03  0.249999617E+01
   H -0.127181385E+01  0.216833134E+01  0.249997050E+01
   H  0.127180998E+01  0.216833076E+01  0.249996825E+01
   H -0.240778856E+01 -0.832988092E-01  0.249997406E+01
   H  0.240778474E+01 -0.832992700E-01  0.249997053E+01
  Xx  0.692285472E+00  0.124917307E+01  0.835703896E+01
    11
 # iter =   500  time[fs]= 0.50000
   N -0.668548028E+00 -0.116476243E+01  0.250002785E+01
   N  0.668493972E+00 -0.116483911E+01  0.250003134E+01
   C -0.692569606E+00  0.124911115E+01  0.249999613E+01
   C -0.672840669E+00 -0.141883893E+01 -0.154247507E+01
   C -0.132315155E+01  0.311095111E-03  0.250002527E+01
   C  0.132322571E+01  0.140265902E-03  0.249999911E+01
   H -0.127250705E+01  0.216903481E+01  0.249995121E+01
   H  0.127391556E+01  0.217115979E+01  0.250231238E+01
   H -0.240858447E+01 -0.833587965E-01  0.249997155E+01
   H  0.240897045E+01 -0.835644532E-01  0.249995101E+01
  Xx  0.175021510E+01  0.331660123E+01  0.210615727E+00
    11
 # iter =   750  time[fs]= 0.75000
   N -0.668795028E+00 -0.116528633E+01  0.250007490E+01
   N  0.668709367E+00 -0.116530961E+01  0.250006807E+01
   C -0.692965071E+00  0.124928616E+01  0.249999323E+01
   C -0.342191561E+01 -0.679164522E+01 -0.967855807E+01
   C -0.132324191E+01  0.127191998E-03  0.250005153E+01
   C  0.132347317E+01 -0.178775679E-03  0.250000711E+01
   H -0.127575873E+01  0.217418988E+01  0.250007440E+01
   H  0.127950474E+01  0.217840276E+01  0.251089512E+01
   H -0.241339265E+01 -0.836828760E-01  0.249997328E+01
   H  0.241537313E+01 -0.842974281E-01  0.250013973E+01
  Xx  0.388161161E+01  0.748179416E+01 -0.439662389E+01
    11
 # iter =  1000  time[fs]= 1.00000
   N -0.669237562E+00 -0.116634973E+01  0.250020932E+01
   N  0.669095313E+00 -0.116614350E+01  0.250005293E+01
   C -0.693210600E+00  0.124954325E+01  0.250000790E+01
   C -0.617080376E+01 -0.121641009E+02 -0.178141622E+02
   C -0.132343054E+01  0.656678485E-04  0.250006406E+01
   C  0.132365300E+01 -0.348240433E-03  0.250002073E+01
   H -0.128141460E+01  0.218410624E+01  0.250035213E+01
   H  0.128631089E+01  0.218787656E+01  0.251968579E+01
   H -0.242329545E+01 -0.843237225E-01  0.249983549E+01
   H  0.242789660E+01 -0.854313907E-01  0.250055502E+01
  Xx  0.601325844E+01  0.116473892E+02 -0.900428741E+01
    11
 # iter =  1250  time[fs]= 1.25000
   N -0.669961603E+00 -0.116791581E+01  0.250038255E+01
   N  0.669848730E+00 -0.116737269E+01  0.250002558E+01
   C -0.693288232E+00  0.124997978E+01  0.250004890E+01
   C -0.891970373E+01 -0.175365791E+02 -0.259497744E+02
   C -0.132380515E+01  0.711819969E-04  0.250013002E+01
   C  0.132383680E+01 -0.280013164E-03  0.250005987E+01
   H -0.128931164E+01  0.219799864E+01  0.250045995E+01
   H  0.129426866E+01  0.219914110E+01  0.252854583E+01
   H -0.243820800E+01 -0.854735002E-01  0.249958162E+01
   H  0.244546774E+01 -0.869052749E-01  0.250094674E+01
  Xx  0.814499052E+01  0.158130746E+02 -0.136120549E+02
    11
 # iter =  1500  time[fs]= 1.50000
   N -0.670847917E+00 -0.116992138E+01  0.250052652E+01
   N  0.670818678E+00 -0.116888983E+01  0.250005197E+01
   C -0.693108735E+00  0.125071358E+01  0.250011946E+01
   C -0.116686102E+02 -0.229090702E+02 -0.340853972E+02
   C -0.132446773E+01 -0.332523962E-04  0.250020930E+01
   C  0.132414208E+01 -0.659170681E-04  0.250011581E+01
   H -0.129916791E+01  0.221549917E+01  0.250057940E+01
   H  0.130323075E+01  0.221242553E+01  0.253739829E+01
   H -0.245806283E+01 -0.875761087E-01  0.249931335E+01
   H  0.246743507E+01 -0.886987377E-01  0.250132624E+01
  Xx  0.102767597E+02  0.199788310E+02 -0.182198788E+02
    11
 # iter =  1750  time[fs]= 1.75000
   N -0.672036892E+00 -0.117220311E+01  0.250064190E+01
   N  0.672112713E+00 -0.117077822E+01  0.250009756E+01
   C -0.692711699E+00  0.125175770E+01  0.250017427E+01
   C -0.144175212E+02 -0.282815702E+02 -0.422210225E+02
   C -0.132525636E+01 -0.292203830E-03  0.250030797E+01
   C  0.132444974E+01  0.389897918E-03  0.250016589E+01
   H -0.131085988E+01  0.223580417E+01  0.250066124E+01
   H  0.131323322E+01  0.222730620E+01  0.254627574E+01
   H -0.248253850E+01 -0.902211667E-01  0.249923011E+01
   H  0.249359538E+01 -0.908945722E-01  0.250169551E+01
  Xx  0.124085516E+02  0.241446314E+02 -0.228277381E+02
    11
 # iter =  2000  time[fs]= 2.00000
   N -0.673484492E+00 -0.117475352E+01  0.250072429E+01
   N  0.673816080E+00 -0.117308517E+01  0.250016441E+01
   C -0.692049510E+00  0.125289689E+01  0.250023738E+01
   C -0.171664362E+02 -0.336540781E+02 -0.503566478E+02
   C -0.132643422E+01 -0.598892092E-03  0.250041503E+01
   C  0.132467955E+01  0.105634731E-02  0.250021494E+01
   H -0.132417370E+01  0.225937663E+01  0.250093082E+01
   H  0.132425059E+01  0.224397509E+01  0.255516232E+01
   H -0.251011444E+01 -0.931104660E-01  0.249934361E+01
   H  0.252379372E+01 -0.941239951E-01  0.250212741E+01
  Xx  0.145403587E+02  0.283104613E+02 -0.274356216E+02
    11
 # iter =  2250  time[fs]= 2.25000
   N -0.675154724E+00 -0.117751876E+01  0.250079030E+01
   N  0.675714150E+00 -0.117600399E+01  0.250028031E+01
   C -0.691225607E+00  0.125436340E+01  0.250031179E+01
   C -0.199153520E+02 -0.390265872E+02 -0.584922731E+02
   C -0.132801260E+01 -0.106912235E-02  0.250053416E+01
   C  0.132498964E+01  0.210125323E-02  0.250026169E+01
   H -0.133920038E+01  0.228493874E+01  0.250097641E+01
   H  0.133636889E+01  0.226262325E+01  0.256414839E+01
   H -0.253989591E+01 -0.962807599E-01  0.249939599E+01
   H  0.255787413E+01 -0.980199726E-01  0.250245543E+01
  Xx  0.166721765E+02  0.324763119E+02 -0.320435230E+02
    11
 # iter =  2500  time[fs]= 2.50000
   N -0.676983923E+00 -0.118054169E+01  0.250084226E+01
   N  0.677802713E+00 -0.117930835E+01  0.250039035E+01
   C -0.690275243E+00  0.125609645E+01  0.250039358E+01
   C -0.226642677E+02 -0.443990964E+02 -0.666278984E+02
   C -0.132989116E+01 -0.163623370E-02  0.250063808E+01
   C  0.132544665E+01  0.335117406E-02  0.250031744E+01
   H -0.135546507E+01  0.231240493E+01  0.250107211E+01
   H  0.134945209E+01  0.228309558E+01  0.257323217E+01
   H -0.257282781E+01 -0.997134928E-01  0.249957567E+01
   H  0.259519933E+01 -0.102101009E+00  0.250278631E+01
  Xx  0.188040032E+02  0.366421803E+02 -0.366514419E+02
    11
 # iter =  2750  time[fs]= 2.75000
   N -0.678965813E+00 -0.118376710E+01  0.250091753E+01
   N  0.680167703E+00 -0.118297144E+01  0.250048610E+01
   C -0.689170866E+00  0.125808189E+01  0.250044931E+01
   C -0.254131834E+02 -0.497716055E+02 -0.747635237E+02
   C -0.133212554E+01 -0.236792219E-02  0.250074173E+01
   C  0.132605559E+01  0.473244332E-02  0.250038350E+01
   H -0.137284895E+01  0.234167150E+01  0.250112266E+01
   H  0.136380362E+01  0.230531431E+01  0.258234156E+01
   H -0.260861925E+01 -0.103580909E+00  0.250002336E+01
   H  0.263470686E+01 -0.106220674E+00  0.250310493E+01
  Xx  0.209358388E+02  0.408080664E+02 -0.412593776E+02
    11
 # iter =  3000  time[fs]= 3.00000
   N -0.681159116E+00 -0.118721920E+01  0.250104155E+01
   N  0.682825009E+00 -0.118705192E+01  0.250056178E+01
   C -0.687963480E+00  0.126037743E+01  0.250053416E+01
   C -0.281620992E+02 -0.551441147E+02 -0.828991490E+02
   C -0.133481793E+01 -0.319839601E-02  0.250081708E+01
   C  0.132694315E+01  0.621887038E-02  0.250044427E+01
   H -0.139115621E+01  0.237286008E+01  0.250137364E+01
   H  0.137921218E+01  0.232922445E+01  0.259155234E+01
   H -0.264654163E+01 -0.107645152E+00  0.250018260E+01
   H  0.267594932E+01 -0.110095987E+00  0.250334975E+01
  Xx  0.230676828E+02  0.449739685E+02 -0.458673175E+02
    11
 # iter =  3250  time[fs]= 3.25000
   N -0.683707960E+00 -0.119103675E+01  0.250121000E+01
   N  0.685864923E+00 -0.119148409E+01  0.250062071E+01
   C -0.686770181E+00  0.126284504E+01  0.250065043E+01
   C -0.309110149E+02 -0.605166238E+02 -0.910347742E+02
   C -0.133789627E+01 -0.401126600E-02  0.250085949E+01
   C  0.132814966E+01  0.786104322E-02  0.250049716E+01
   H -0.141047572E+01  0.240605509E+01  0.250154413E+01
   H  0.139582924E+01  0.235495333E+01  0.260085415E+01
   H -0.268571613E+01 -0.111934219E+00  0.250014271E+01
   H  0.271900347E+01 -0.113970770E+00  0.250368112E+01
  Xx  0.251995290E+02  0.491398733E+02 -0.504752575E+02
    11
 # iter =  3500  time[fs]= 3.50000
   N -0.686462624E+00 -0.119525547E+01  0.250136107E+01
   N  0.689188156E+00 -0.119633852E+01  0.250067648E+01
   C -0.685473050E+00  0.126549466E+01  0.250075388E+01
   C -0.336599307E+02 -0.658891330E+02 -0.991703995E+02
   C -0.134151385E+01 -0.474001254E-02  0.250093778E+01
   C  0.132952991E+01  0.967451561E-02  0.250054428E+01
   H -0.143091744E+01  0.244150079E+01  0.250162874E+01
   H  0.141340869E+01  0.238242716E+01  0.261025704E+01
   H -0.272544641E+01 -0.116175290E+00  0.250015688E+01
   H  0.276415720E+01 -0.117989900E+00  0.250410078E+01
  Xx  0.273313752E+02  0.533057781E+02 -0.550831975E+02
    11
 # iter =  3750  time[fs]= 3.75000
   N -0.689458754E+00 -0.119986531E+01  0.250150726E+01
   N  0.692937600E+00 -0.120148910E+01  0.250072646E+01
   C -0.684051804E+00  0.126838441E+01  0.250086156E+01
   C -0.364088464E+02 -0.712616421E+02 -0.107306025E+03
   C -0.134558898E+01 -0.544749869E-02  0.250101943E+01
   C  0.133091318E+01  0.116009647E-01  0.250058032E+01
   H -0.145207206E+01  0.247850379E+01  0.250164130E+01
   H  0.143205877E+01  0.241146529E+01  0.261971975E+01
   H -0.276633493E+01 -0.120538372E+00  0.250010660E+01
   H  0.281170342E+01 -0.122038499E+00  0.250435522E+01
  Xx  0.294632213E+02  0.574716829E+02 -0.596911374E+02
    11
 # iter =  4000  time[fs]= 4.00000
   N -0.692724866E+00 -0.120481951E+01  0.250166377E+01
   N  0.697005196E+00 -0.120690061E+01  0.250076763E+01
   C -0.682800030E+00  0.127160114E+01  0.250093804E+01
   C -0.391577621E+02 -0.766341513E+02 -0.115441650E+03
   C -0.134992006E+01 -0.609704829E-02  0.250110536E+01
   C  0.133255728E+01  0.134621396E-01  0.250064039E+01
   H -0.147355893E+01  0.251620617E+01  0.250181009E+01
   H  0.145178333E+01  0.244235051E+01  0.262933919E+01
   H -0.280878699E+01 -0.125040441E+00  0.250010561E+01
   H  0.286088824E+01 -0.126083794E+00  0.250479169E+01
  Xx  0.315950675E+02  0.616375877E+02 -0.642990774E+02
    11
 # iter =  4250  time[fs]= 4.25000
   N -0.696221235E+00 -0.121013570E+01  0.250182145E+01
   N  0.701368734E+00 -0.121257014E+01  0.250081604E+01
   C -0.681619233E+00  0.127507704E+01  0.250102667E+01
   C -0.419066779E+02 -0.820066604E+02 -0.123577275E+03
   C -0.135455074E+01 -0.668429031E-02  0.250115816E+01
   C  0.133442422E+01  0.153187999E-01  0.250067997E+01
   H -0.149540712E+01  0.255527446E+01  0.250194799E+01
   H  0.147258091E+01  0.247491122E+01  0.263912841E+01
   H -0.285247870E+01 -0.129754588E+00  0.250009178E+01
   H  0.291197307E+01 -0.129930540E+00  0.250520192E+01
  Xx  0.337269137E+02  0.658034925E+02 -0.689070173E+02
    11
 # iter =  4500  time[fs]= 4.50000
   N -0.699912437E+00 -0.121574861E+01  0.250199103E+01
   N  0.705981607E+00 -0.121844273E+01  0.250084950E+01
   C -0.680395481E+00  0.127878361E+01  0.250110364E+01
   C -0.446555936E+02 -0.873791696E+02 -0.131712901E+03
   C -0.135951807E+01 -0.731239296E-02  0.250122798E+01
   C  0.133634845E+01  0.170809260E-01  0.250073328E+01
   H -0.151779004E+01  0.259575108E+01  0.250205965E+01
   H  0.149426339E+01  0.250920591E+01  0.264897628E+01
   H -0.289734709E+01 -0.134585725E+00  0.250015428E+01
   H  0.296522598E+01 -0.133943922E+00  0.250565128E+01
  Xx  0.358587598E+02  0.699693972E+02 -0.735149573E+02
    11
 # iter =  4750  time[fs]= 4.75000
   N -0.703734697E+00 -0.122174238E+01  0.250221214E+01
   N  0.710872765E+00 -0.122447913E+01  0.250082951E+01
   C -0.679131725E+00  0.128271750E+01  0.250116603E+01
   C -0.474045094E+02 -0.927516787E+02 -0.139848526E+03
   C -0.136476670E+01 -0.776994563E-02  0.250127228E+01
   C  0.133827300E+01  0.188770689E-01  0.250077835E+01
   H -0.154066997E+01  0.263684085E+01  0.250213123E+01
   H  0.151673245E+01  0.254500545E+01  0.265894634E+01
   H -0.294379167E+01 -0.139617110E+00  0.250027977E+01
   H  0.302046388E+01 -0.138155540E+00  0.250618607E+01
  Xx  0.379906060E+02  0.741353020E+02 -0.781228973E+02
    11
 # iter =  5000  time[fs]= 5.00000
   N -0.707687116E+00 -0.122808672E+01  0.250244068E+01
   N  0.715997427E+00 -0.123074049E+01  0.250080569E+01
   C -0.677916461E+00  0.128682249E+01  0.250122868E+01
   C -0.501534251E+02 -0.981241879E+02 -0.147984151E+03
   C -0.137035526E+01 -0.814145933E-02  0.250128794E+01
   C  0.134032261E+01  0.206357559E-01  0.250084429E+01
   H -0.156396701E+01  0.267901550E+01  0.250225046E+01
   H  0.154006182E+01  0.258236081E+01  0.266909746E+01
   H -0.299086635E+01 -0.144805033E+00  0.250031449E+01
   H  0.307749098E+01 -0.142454439E+00  0.250673871E+01
  Xx  0.401224522E+02  0.783012068E+02 -0.827308372E+02
    11
 # iter =  5250  time[fs]= 5.25000
   N -0.711925811E+00 -0.123472209E+01  0.250269272E+01
   N  0.721435852E+00 -0.123714792E+01  0.250077051E+01
   C -0.676796534E+00  0.129108156E+01  0.250130575E+01
   C -0.529023408E+02 -0.103496697E+03 -0.156119777E+03
   C -0.137624604E+01 -0.840057108E-02  0.250129549E+01
   C  0.134259461E+01  0.223953121E-01  0.250088466E+01
   H -0.158749199E+01  0.272219183E+01  0.250244159E+01
   H  0.156433843E+01  0.262114337E+01  0.267932337E+01
   H -0.303840694E+01 -0.150172675E+00  0.250034103E+01
   H  0.313577154E+01 -0.146729680E+00  0.250724441E+01
  Xx  0.422542983E+02  0.824671116E+02 -0.873387772E+02
    11
 # iter =  5500  time[fs]= 5.50000
   N -0.716485614E+00 -0.124163028E+01  0.250293967E+01
   N  0.727155683E+00 -0.124364340E+01  0.250069768E+01
   C -0.675697919E+00  0.129544303E+01  0.250138532E+01
   C -0.556512566E+02 -0.108869206E+03 -0.164255402E+03
   C -0.138236379E+01 -0.861101410E-02  0.250130022E+01
   C  0.134503666E+01  0.241318119E-01  0.250097164E+01
   H -0.161156078E+01  0.276635769E+01  0.250247248E+01
   H  0.158961298E+01  0.266152737E+01  0.268969633E+01
   H -0.308657987E+01 -0.155674622E+00  0.250036904E+01
   H  0.319507291E+01 -0.151053891E+00  0.250771313E+01
  Xx  0.443861445E+02  0.866330164E+02 -0.919467171E+02
    11
 # iter =  5750  time[fs]= 5.75000
   N -0.721421717E+00 -0.124875935E+01  0.250317619E+01
   N  0.733305503E+00 -0.125015924E+01  0.250066358E+01
   C -0.674569552E+00  0.129991607E+01  0.250146469E+01
   C -0.584001723E+02 -0.114241715E+03 -0.172391027E+03
   C -0.138874678E+01 -0.889155264E-02  0.250130623E+01
   C  0.134757302E+01  0.258037880E-01  0.250102954E+01
   H -0.163615061E+01  0.281173966E+01  0.250241680E+01
   H  0.161580371E+01  0.270328070E+01  0.270017612E+01
   H -0.313530743E+01 -0.161451658E+00  0.250041557E+01
   H  0.325560405E+01 -0.155603422E+00  0.250819846E+01
  Xx  0.465179907E+02  0.907989212E+02 -0.965546571E+02
    11
 # iter =  6000  time[fs]= 6.00000
   N -0.726551371E+00 -0.125609154E+01  0.250339095E+01
   N  0.739693199E+00 -0.125675205E+01  0.250059795E+01
   C -0.673427532E+00  0.130464727E+01  0.250153583E+01
   C -0.611490881E+02 -0.119614224E+03 -0.180526652E+03
   C -0.139540130E+01 -0.924458161E-02  0.250135385E+01
   C  0.135010791E+01  0.274324987E-01  0.250109147E+01
   H -0.166093325E+01  0.285803807E+01  0.250235171E+01
   H  0.164284426E+01  0.274634831E+01  0.271073969E+01
   H -0.318448346E+01 -0.167429606E+00  0.250048144E+01
   H  0.331779158E+01 -0.160298922E+00  0.250868132E+01
  Xx  0.486498369E+02  0.949648260E+02 -0.101162597E+03
    11
 # iter =  6250  time[fs]= 6.25000
   N -0.731831578E+00 -0.126364490E+01  0.250359588E+01
   N  0.746298897E+00 -0.126334051E+01  0.250051838E+01
   C -0.672354121E+00  0.130957122E+01  0.250161652E+01
   C -0.638980038E+02 -0.124986734E+03 -0.188662278E+03
   C -0.140217209E+01 -0.961890158E-02  0.250138541E+01
   C  0.135264774E+01  0.289592282E-01  0.250118376E+01
   H -0.168596561E+01  0.290500499E+01  0.250219620E+01
   H  0.167071302E+01  0.279093857E+01  0.272142207E+01
   H -0.323472730E+01 -0.173676063E+00  0.250047373E+01
   H  0.338175431E+01 -0.165176893E+00  0.250914673E+01
  Xx  0.507816830E+02  0.991307308E+02 -0.105770537E+03
    11
 # iter =  6500  time[fs]= 6.50000
   N -0.737267661E+00 -0.127141619E+01  0.250379542E+01
   N  0.753070434E+00 -0.126996740E+01  0.250048731E+01
   C -0.671368082E+00  0.131457530E+01  0.250168418E+01
   C -0.666469196E+02 -0.130359243E+03 -0.196797903E+03
   C -0.140903030E+01 -0.982923796E-02  0.250144378E+01
   C  0.135513646E+01  0.304595067E-01  0.250121407E+01
   H -0.171145498E+01  0.295270434E+01  0.250196527E+01
   H  0.169931008E+01  0.283690326E+01  0.273220414E+01
   H -0.328600223E+01 -0.180102423E+00  0.250054063E+01
   H  0.344752508E+01 -0.170438648E+00  0.250955032E+01
  Xx  0.529135292E+02  0.103296636E+03 -0.110378477E+03
    11
 # iter =  6750  time[fs]= 6.75000
   N -0.742862371E+00 -0.127930108E+01  0.250395012E+01
   N  0.760013439E+00 -0.127662627E+01  0.250046365E+01
   C -0.670527213E+00  0.131953248E+01  0.250177920E+01
   C -0.693958353E+02 -0.135731752E+03 -0.204933528E+03
   C -0.141597419E+01 -0.989556767E-02  0.250147260E+01
   C  0.135779946E+01  0.318203289E-01  0.250127253E+01
   H -0.173753049E+01  0.300165795E+01  0.250169074E+01
   H  0.172867245E+01  0.288412376E+01  0.274308662E+01
   H -0.333807503E+01 -0.186674241E+00  0.250056189E+01
   H  0.351440127E+01 -0.175951960E+00  0.250996038E+01
  Xx  0.550453754E+02  0.107462540E+03 -0.114986417E+03
    11
 # iter =  7000  time[fs]= 7.00000
   N -0.748506997E+00 -0.128727283E+01  0.250413575E+01
   N  0.766995585E+00 -0.128331752E+01  0.250038590E+01
   C -0.669642976E+00  0.132441988E+01  0.250185940E+01
   C -0.721447510E+02 -0.141104261E+03 -0.213069154E+03
   C -0.142302363E+01 -0.988813921E-02  0.250150292E+01
   C  0.136055804E+01  0.331996770E-01  0.250136396E+01
   H -0.176441374E+01  0.305199379E+01  0.250135997E+01
   H  0.175886961E+01  0.293248664E+01  0.275407968E+01
   H -0.339112516E+01 -0.193467313E+00  0.250052768E+01
   H  0.358251473E+01 -0.181627836E+00  0.251033643E+01
  Xx  0.571772215E+02  0.111628445E+03 -0.119594357E+03
    11
 # iter =  7250  time[fs]= 7.25000
   N -0.754238901E+00 -0.129527450E+01  0.250433771E+01
   N  0.774018284E+00 -0.128992958E+01  0.250029000E+01
   C -0.668776613E+00  0.132931763E+01  0.250194464E+01
   C -0.748936668E+02 -0.146476770E+03 -0.221204779E+03
   C -0.143021487E+01 -0.992518485E-02  0.250154287E+01
   C  0.136333895E+01  0.344629137E-01  0.250144245E+01
   H -0.179205236E+01  0.310341600E+01  0.250098899E+01
   H  0.178987744E+01  0.298213727E+01  0.276517464E+01
   H -0.344493190E+01 -0.200379141E+00  0.250049705E+01
   H  0.365198576E+01 -0.187481097E+00  0.251060821E+01
  Xx  0.593090677E+02  0.115794350E+03 -0.124202297E+03
    11
 # iter =  7500  time[fs]= 7.50000
   N -0.759994300E+00 -0.130340762E+01  0.250453868E+01
   N  0.781174607E+00 -0.129641615E+01  0.250018302E+01
   C -0.668031952E+00  0.133436482E+01  0.250201833E+01
   C -0.776425825E+02 -0.151849279E+03 -0.229340404E+03
   C -0.143749210E+01 -0.993680845E-02  0.250158546E+01
   C  0.136617337E+01  0.355199613E-01  0.250153422E+01
   H -0.182016237E+01  0.315547329E+01  0.250055317E+01
   H  0.182170014E+01  0.303294939E+01  0.277645046E+01
   H -0.349974073E+01 -0.207454717E+00  0.250049992E+01
   H  0.372276301E+01 -0.193571028E+00  0.251088630E+01
  Xx  0.614409139E+02  0.119960255E+03 -0.128810237E+03
    11
 # iter =  7750  time[fs]= 7.75000
   N -0.765841305E+00 -0.131153486E+01  0.250474060E+01
   N  0.788497101E+00 -0.130285398E+01  0.250006593E+01
   C -0.667407312E+00  0.133954473E+01  0.250213787E+01
   C -0.803914983E+02 -0.157221789E+03 -0.237476029E+03
   C -0.144484556E+01 -0.100093337E-01  0.250159353E+01
   C  0.136892085E+01  0.364627719E-01  0.250161033E+01
   H -0.184871579E+01  0.320817932E+01  0.250010423E+01
   H  0.185423821E+01  0.308479923E+01  0.278785802E+01
   H -0.355548003E+01 -0.214734392E+00  0.250046657E+01
   H  0.379520820E+01 -0.199965576E+00  0.251112011E+01
  Xx  0.635727600E+02  0.124126160E+03 -0.133418177E+03
    11
 # iter =  8000  time[fs]= 8.00000
   N -0.771786154E+00 -0.131961177E+01  0.250498657E+01
   N  0.795827873E+00 -0.130926180E+01  0.249998280E+01
   C -0.666813298E+00  0.134476526E+01  0.250224796E+01
   C -0.831404140E+02 -0.162594298E+03 -0.245611655E+03
   C -0.145205553E+01 -0.101930226E-01  0.250153409E+01
   C  0.137160498E+01  0.373482955E-01  0.250165492E+01
   H -0.187768834E+01  0.326170172E+01  0.249962229E+01
   H  0.188748392E+01  0.313777693E+01  0.279939391E+01
   H -0.361263374E+01 -0.222295284E+00  0.250034909E+01
   H  0.386922156E+01 -0.206659040E+00  0.251132638E+01
  Xx  0.657046062E+02  0.128292064E+03 -0.138026117E+03
    11
 # iter =  8250  time[fs]= 8.25000
   N -0.777795908E+00 -0.132771131E+01  0.250524837E+01
   N  0.803087924E+00 -0.131558031E+01  0.249983245E+01
   C -0.666314319E+00  0.135007150E+01  0.250238890E+01
   C -0.858893297E+02 -0.167966807E+03 -0.253747280E+03
   C -0.145914124E+01 -0.103686555E-01  0.250149346E+01
   C  0.137439342E+01  0.381200144E-01  0.250173072E+01
   H -0.190698331E+01  0.331590492E+01  0.249916315E+01
   H  0.192139411E+01  0.319185271E+01  0.281107058E+01
   H -0.367112349E+01 -0.230118484E+00  0.250020553E+01
   H  0.394436574E+01 -0.213578542E+00  0.251149848E+01
  Xx  0.678364524E+02  0.132457969E+03 -0.142634057E+03
    11
 # iter =  8500  time[fs]= 8.50000
   N -0.783882693E+00 -0.133583778E+01  0.250552738E+01
   N  0.810366263E+00 -0.132180420E+01  0.249968115E+01
   C -0.665916489E+00  0.135534682E+01  0.250250975E+01
   C -0.886382455E+02 -0.173339316E+03 -0.261882905E+03
   C -0.146615031E+01 -0.104841707E-01  0.250142853E+01
   C  0.137724330E+01  0.387622834E-01  0.250179510E+01
   H -0.193674564E+01  0.337093230E+01  0.249866023E+01
   H  0.195587117E+01  0.324693352E+01  0.282285168E+01
   H -0.373085979E+01 -0.238199514E+00  0.250002539E+01
   H  0.402070817E+01 -0.220732527E+00  0.251160646E+01
  Xx  0.699682985E+02  0.136623874E+03 -0.147241997E+03
    11
 # iter =  8750  time[fs]= 8.75000
   N -0.790034463E+00 -0.134395023E+01  0.250578773E+01
   N  0.817678941E+00 -0.132793443E+01  0.249955406E+01
   C -0.665511049E+00  0.136065689E+01  0.250265972E+01
   C -0.913871612E+02 -0.178711825E+03 -0.270018531E+03
   C -0.147309390E+01 -0.106114004E-01  0.250134232E+01
   C  0.138000439E+01  0.392570372E-01  0.250185341E+01
   H -0.196689653E+01  0.342669744E+01  0.249813531E+01
   H  0.199087150E+01  0.330302127E+01  0.283476868E+01
   H -0.379184202E+01 -0.246543727E+00  0.249979866E+01
   H  0.409850214E+01 -0.228148066E+00  0.251169235E+01
  Xx  0.721001447E+02  0.140789779E+03 -0.151849937E+03
    11
 # iter =  9000  time[fs]= 9.00000
   N -0.796327294E+00 -0.135198559E+01  0.250602736E+01
   N  0.825074942E+00 -0.133391534E+01  0.249946339E+01
   C -0.665187512E+00  0.136615896E+01  0.250280819E+01
   C -0.941360770E+02 -0.184084334E+03 -0.278154156E+03
   C -0.147999422E+01 -0.109395804E-01  0.250126806E+01
   C  0.138282591E+01  0.395643439E-01  0.250187821E+01
   H -0.199736524E+01  0.348299730E+01  0.249761226E+01
   H  0.202646620E+01  0.336004086E+01  0.284683794E+01
   H -0.385405524E+01 -0.255099339E+00  0.249949593E+01
   H  0.417738941E+01 -0.235803936E+00  0.251178276E+01
  Xx  0.742319909E+02  0.144955683E+03 -0.156457877E+03
    11
 # iter =  9250  time[fs]= 9.25000
   N -0.802608432E+00 -0.135998583E+01  0.250625274E+01
   N  0.832513181E+00 -0.133977850E+01  0.249937954E+01
   C -0.664873758E+00  0.137167014E+01  0.250292418E+01
   C -0.968849927E+02 -0.189456843E+03 -0.286289781E+03
   C -0.148687213E+01 -0.113586142E-01  0.250121360E+01
   C  0.138564377E+01  0.397570282E-01  0.250189899E+01
   H -0.202832326E+01  0.354015269E+01  0.249702925E+01
   H  0.206263539E+01  0.341798231E+01  0.285901468E+01
   H -0.391738713E+01 -0.263945247E+00  0.249916378E+01
   H  0.425719258E+01 -0.243673677E+00  0.251186897E+01
  Xx  0.763638370E+02  0.149121588E+03 -0.161065817E+03
    11
 # iter =  9500  time[fs]= 9.50000
   N -0.808933433E+00 -0.136790195E+01  0.250640384E+01
   N  0.840076961E+00 -0.134557445E+01  0.249933184E+01
   C -0.664511047E+00  0.137707433E+01  0.250307793E+01
   C -0.996339084E+02 -0.194829353E+03 -0.294425406E+03
   C -0.149383684E+01 -0.118582333E-01  0.250120337E+01
   C  0.138835882E+01  0.398319526E-01  0.250189739E+01
   H -0.205998086E+01  0.359836611E+01  0.249642696E+01
   H  0.209940331E+01  0.347682596E+01  0.287130989E+01
   H -0.398144103E+01 -0.272993958E+00  0.249884399E+01
   H  0.433816468E+01 -0.251829438E+00  0.251193577E+01
  Xx  0.784956832E+02  0.153287493E+03 -0.165673756E+03
    11
 # iter =  9750  time[fs]= 9.75000
   N -0.815219995E+00 -0.137569883E+01  0.250657524E+01
   N  0.847765755E+00 -0.135132752E+01  0.249928977E+01
   C -0.664184651E+00  0.138246826E+01  0.250318797E+01
   C -0.102382824E+03 -0.200201862E+03 -0.302561032E+03
   C -0.150094934E+01 -0.124381457E-01  0.250117114E+01
   C  0.139102520E+01  0.397992853E-01  0.250186141E+01
   H -0.209215314E+01  0.365734646E+01  0.249581281E+01
   H  0.213673978E+01  0.353652175E+01  0.288369971E+01
   H -0.404625699E+01 -0.282243346E+00  0.249853473E+01
   H  0.442024170E+01 -0.260258823E+00  0.251200064E+01
  Xx  0.806275294E+02  0.157453398E+03 -0.170281696E+03
    11
 # iter = 10000  time[fs]=10.00000
   N -0.821496872E+00 -0.138341947E+01  0.250675640E+01
   N  0.855504877E+00 -0.135702544E+01  0.249921209E+01
   C -0.663881324E+00  0.138783088E+01  0.250334203E+01
   C -0.105131740E+03 -0.205574371E+03 -0.310696657E+03
   C -0.150805965E+01 -0.130582278E-01  0.250112355E+01
   C  0.139370567E+01  0.396656226E-01  0.250186529E+01
   H -0.212482921E+01  0.371709466E+01  0.249516315E+01
   H  0.217452658E+01  0.359703446E+01  0.289623750E+01
   H -0.411213801E+01 -0.291758175E+00  0.249823819E+01
   H  0.450334921E+01 -0.268930908E+00  0.251206569E+01
  Xx  0.827593755E+02  0.161619303E+03 -0.174889636E+03
    11
 # iter = 10250  time[fs]=10.25000
   N -0.827800660E+00 -0.139106514E+01  0.250696281E+01
   N  0.863291398E+00 -0.136263929E+01  0.249910714E+01
   C -0.663567618E+00  0.139318297E+01  0.250348713E+01
   C -0.107880656E+03 -0.210946880E+03 -0.318832282E+03
   C -0.151514179E+01 -0.138881644E-01  0.250105107E+01
   C  0.139635130E+01  0.393886200E-01  0.250187683E+01
   H -0.215806833E+01  0.377773697E+01  0.249450776E+01
   H  0.221286126E+01  0.365834286E+01  0.290887793E+01
   H -0.417897358E+01 -0.301553041E+00  0.249792858E+01
   H  0.458746591E+01 -0.277861267E+00  0.251210135E+01
  Xx  0.848912217E+02  0.165785207E+03 -0.179497576E+03
    11
 # iter = 10500  time[fs]=10.50000
   N -0.834142860E+00 -0.139872541E+01  0.250722491E+01
   N  0.871120351E+00 -0.136817504E+01  0.249895076E+01
   C -0.663279405E+00  0.139849124E+01  0.250361908E+01
   C -0.110629571E+03 -0.216319389E+03 -0.326967908E+03
   C -0.152222416E+01 -0.147406698E-01  0.250097341E+01
   C  0.139900464E+01  0.389935833E-01  0.250190486E+01
   H -0.219179234E+01  0.383921138E+01  0.249386591E+01
   H  0.225169077E+01  0.372045256E+01  0.292160675E+01
   H -0.424664469E+01 -0.311620588E+00  0.249758306E+01
   H  0.467250879E+01 -0.286990266E+00  0.251212293E+01
  Xx  0.870230679E+02  0.169951112E+03 -0.184105516E+03
    11
 # iter = 10750  time[fs]=10.75000
   N -0.840566595E+00 -0.140640338E+01  0.250747403E+01
   N  0.879135454E+00 -0.137349355E+01  0.249876723E+01
   C -0.663053377E+00  0.140380696E+01  0.250377320E+01
   C -0.113378487E+03 -0.221691898E+03 -0.335103533E+03
   C -0.152923109E+01 -0.156678176E-01  0.250086677E+01
   C  0.140162677E+01  0.383275141E-01  0.250197139E+01
   H -0.222597415E+01  0.390150091E+01  0.249319248E+01
   H  0.229097764E+01  0.378331098E+01  0.293447536E+01
   H -0.431539764E+01 -0.321909886E+00  0.249724967E+01
   H  0.475849950E+01 -0.296335008E+00  0.251210982E+01
  Xx  0.891549140E+02  0.174117017E+03 -0.188713456E+03
    11
 # iter = 11000  time[fs]=11.00000
   N -0.847110538E+00 -0.141412086E+01  0.250775485E+01
   N  0.887268104E+00 -0.137858380E+01  0.249861643E+01
   C -0.662873941E+00  0.140905526E+01  0.250394254E+01
   C -0.116127403E+03 -0.227064408E+03 -0.343239158E+03
   C -0.153613362E+01 -0.166280011E-01  0.250069172E+01
   C  0.140422408E+01  0.373618743E-01  0.250200829E+01
   H -0.226066733E+01  0.396466320E+01  0.249248626E+01
   H  0.233069618E+01  0.384685330E+01  0.294742775E+01
   H -0.438521229E+01 -0.332491271E+00  0.249689787E+01
   H  0.484548173E+01 -0.305906151E+00  0.251207639E+01
  Xx  0.912867602E+02  0.178282922E+03 -0.193321396E+03
    11
 # iter = 11250  time[fs]=11.25000
   N -0.853648592E+00 -0.142187345E+01  0.250804426E+01
   N  0.895429880E+00 -0.138358784E+01  0.249846977E+01
   C -0.662635184E+00  0.141427992E+01  0.250410015E+01
   C -0.118876319E+03 -0.232436917E+03 -0.351374783E+03
   C -0.154301352E+01 -0.176809386E-01  0.250052665E+01
   C  0.140681107E+01  0.362666090E-01  0.250202449E+01
   H -0.229585870E+01  0.402864779E+01  0.249176624E+01
   H  0.237087779E+01  0.391108956E+01  0.296046244E+01
   H -0.445591272E+01 -0.343323770E+00  0.249653203E+01
   H  0.493329239E+01 -0.315695108E+00  0.251203599E+01
  Xx  0.934186064E+02  0.182448827E+03 -0.197929336E+03
    11
 # iter = 11500  time[fs]=11.50000
   N -0.860264143E+00 -0.142964576E+01  0.250829548E+01
   N  0.903671190E+00 -0.138855716E+01  0.249830406E+01
   C -0.662411660E+00  0.141949533E+01  0.250429379E+01
   C -0.121625234E+03 -0.237809426E+03 -0.359510409E+03
   C -0.154984439E+01 -0.188255251E-01  0.250037745E+01
   C  0.140940646E+01  0.350604193E-01  0.250207306E+01
   H -0.233151319E+01  0.409341829E+01  0.249103960E+01
   H  0.241149266E+01  0.397597264E+01  0.297363598E+01
   H -0.452748622E+01 -0.354324714E+00  0.249617028E+01
   H  0.502202420E+01 -0.325701670E+00  0.251195923E+01
  Xx  0.955504526E+02  0.186614731E+03 -0.202537276E+03
    11
 # iter = 11750  time[fs]=11.75000
   N -0.866996076E+00 -0.143743543E+01  0.250856249E+01
   N  0.912111452E+00 -0.139351138E+01  0.249816914E+01
   C -0.662276258E+00  0.142465906E+01  0.250443659E+01
   C -0.124374150E+03 -0.243181935E+03 -0.367646034E+03
   C -0.155655891E+01 -0.199473418E-01  0.250022463E+01
   C  0.141191021E+01  0.337231975E-01  0.250207745E+01
   H -0.236752598E+01  0.415877400E+01  0.249029484E+01
   H  0.245246076E+01  0.404151395E+01  0.298689326E+01
   H -0.459992329E+01 -0.365527395E+00  0.249579222E+01
   H  0.511164858E+01 -0.335891918E+00  0.251186757E+01
  Xx  0.976822987E+02  0.190780636E+03 -0.207145216E+03
    11
 # iter = 12000  time[fs]=12.00000
   N -0.873762911E+00 -0.144523638E+01  0.250879548E+01
   N  0.920619128E+00 -0.139848069E+01  0.249805373E+01
   C -0.662189538E+00  0.142973876E+01  0.250464479E+01
   C -0.127123066E+03 -0.248554444E+03 -0.375781659E+03
   C -0.156320163E+01 -0.211214049E-01  0.250001830E+01
   C  0.141438154E+01  0.323022549E-01  0.250206897E+01
   H -0.240394844E+01  0.422482893E+01  0.248951108E+01
   H  0.249384664E+01  0.410771235E+01  0.300025528E+01
   H -0.467321808E+01 -0.376946505E+00  0.249541994E+01
   H  0.520214641E+01 -0.346272651E+00  0.251175767E+01
  Xx  0.998141449E+02  0.194946541E+03 -0.211753156E+03
    11
 # iter = 12250  time[fs]=12.25000
   N -0.880481996E+00 -0.145305997E+01  0.250905569E+01
   N  0.929217033E+00 -0.140347683E+01  0.249791756E+01
   C -0.662161897E+00  0.143474299E+01  0.250482634E+01
   C -0.129871982E+03 -0.253926953E+03 -0.383917285E+03
   C -0.156978351E+01 -0.222424550E-01  0.249981711E+01
   C  0.141682072E+01  0.308152776E-01  0.250208426E+01
   H -0.244077256E+01  0.429156195E+01  0.248871965E+01
   H  0.253563714E+01  0.417449824E+01  0.301371587E+01
   H -0.474735416E+01 -0.388560359E+00  0.249501322E+01
   H  0.529342816E+01 -0.356830814E+00  0.251163259E+01
  Xx  0.101945991E+03  0.199112446E+03 -0.216361096E+03
    11
 # iter = 12500  time[fs]=12.50000
   N -0.887270656E+00 -0.146090993E+01  0.250932237E+01
   N  0.937892584E+00 -0.140847568E+01  0.249775577E+01
   C -0.662180235E+00  0.143973905E+01  0.250500575E+01
   C -0.132620897E+03 -0.259299462E+03 -0.392052910E+03
   C -0.157627504E+01 -0.233873448E-01  0.249964727E+01
   C  0.141918481E+01  0.291720779E-01  0.250208094E+01
   H -0.247798893E+01  0.435895671E+01  0.248792223E+01
   H  0.257779446E+01  0.424190026E+01  0.302724495E+01
   H -0.482222624E+01 -0.400343832E+00  0.249463907E+01
   H  0.538549615E+01 -0.367595370E+00  0.251148465E+01
  Xx  0.104077837E+03  0.203278351E+03 -0.220969036E+03
    11
 # iter = 12750  time[fs]=12.75000
   N -0.894125688E+00 -0.146878630E+01  0.250950681E+01
   N  0.946671900E+00 -0.141339129E+01  0.249764465E+01
   C -0.662244358E+00  0.144473197E+01  0.250517084E+01
   C -0.135369813E+03 -0.264671972E+03 -0.400188535E+03
   C -0.158265437E+01 -0.245798200E-01  0.249951233E+01
   C  0.142153702E+01  0.273325801E-01  0.250208579E+01
   H -0.251556822E+01  0.442692978E+01  0.248706722E+01
   H  0.262031107E+01  0.430987531E+01  0.304087509E+01
   H -0.489797611E+01 -0.412276800E+00  0.249428984E+01
   H  0.547827444E+01 -0.378524046E+00  0.251132666E+01
  Xx  0.106209683E+03  0.207444255E+03 -0.225576976E+03
    11
 # iter = 13000  time[fs]=13.00000
   N -0.901106583E+00 -0.147670862E+01  0.250966307E+01
   N  0.955549351E+00 -0.141820215E+01  0.249753453E+01
   C -0.662418634E+00  0.144970935E+01  0.250530141E+01
   C -0.138118729E+03 -0.270044481E+03 -0.408324160E+03
   C -0.158885845E+01 -0.257897327E-01  0.249937407E+01
   C  0.142386034E+01  0.252545771E-01  0.250208159E+01
   H -0.255350896E+01  0.449551636E+01  0.248616759E+01
   H  0.266316389E+01  0.437844486E+01  0.305459442E+01
   H -0.497463599E+01 -0.424399039E+00  0.249389263E+01
   H  0.557174014E+01 -0.389626151E+00  0.251117126E+01
  Xx  0.108341530E+03  0.211610160E+03 -0.230184916E+03
    11
 # iter = 13250  time[fs]=13.25000
   N -0.908161587E+00 -0.148463152E+01  0.250979789E+01
   N  0.964510392E+00 -0.142290710E+01  0.249742506E+01
   C -0.662669260E+00  0.145467732E+01  0.250541180E+01
   C -0.140867645E+03 -0.275416990E+03 -0.416459786E+03
   C -0.159488561E+01 -0.270436900E-01  0.249926508E+01
   C  0.142617512E+01  0.228978101E-01  0.250208876E+01
   H -0.259177156E+01  0.456469744E+01  0.248525602E+01
   H  0.270637276E+01  0.444754654E+01  0.306840043E+01
   H -0.505206180E+01 -0.436737682E+00  0.249353703E+01
   H  0.566584721E+01 -0.400906288E+00  0.251101305E+01
  Xx  0.110473376E+03  0.215776065E+03 -0.234792856E+03
    11
 # iter = 13500  time[fs]=13.50000
   N -0.915306895E+00 -0.149257157E+01  0.250992327E+01
   N  0.973507415E+00 -0.142747116E+01  0.249732061E+01
   C -0.663003046E+00  0.145957605E+01  0.250554717E+01
   C -0.143616560E+03 -0.280789499E+03 -0.424595411E+03
   C -0.160079784E+01 -0.282942344E-01  0.249917362E+01
   C  0.142850962E+01  0.202889888E-01  0.250209195E+01
   H -0.263041498E+01  0.463450529E+01  0.248434907E+01
   H  0.274997259E+01  0.451714783E+01  0.308229876E+01
   H -0.513024241E+01 -0.449244888E+00  0.249320050E+01
   H  0.576057370E+01 -0.412328937E+00  0.251082448E+01
  Xx  0.112605222E+03  0.219941970E+03 -0.239400796E+03
    11
 # iter = 13750  time[fs]=13.75000
   N -0.922561743E+00 -0.150042254E+01  0.251010023E+01
   N  0.982663490E+00 -0.143197804E+01  0.249719745E+01
   C -0.663383365E+00  0.146446477E+01  0.250566658E+01
   C -0.146365476E+03 -0.286162008E+03 -0.432731036E+03
   C -0.160656292E+01 -0.296501180E-01  0.249902837E+01
   C  0.143069865E+01  0.174664752E-01  0.250208000E+01
   H -0.266941364E+01  0.470488192E+01  0.248340426E+01
   H  0.279389494E+01  0.458726123E+01  0.309627597E+01
   H -0.520920247E+01 -0.461945713E+00  0.249284064E+01
   H  0.585591124E+01 -0.423929596E+00  0.251060058E+01
  Xx  0.114737068E+03  0.224107875E+03 -0.244008736E+03
    11
 # iter = 14000  time[fs]=14.00000
   N -0.929960603E+00 -0.150813461E+01  0.251019128E+01
   N  0.991913041E+00 -0.143641529E+01  0.249705998E+01
   C -0.663785005E+00  0.146927347E+01  0.250583595E+01
   C -0.149114392E+03 -0.291534517E+03 -0.440866662E+03
   C -0.161222931E+01 -0.310957549E-01  0.249889662E+01
   C  0.143284337E+01  0.144231142E-01  0.250210685E+01
   H -0.270878436E+01  0.477585872E+01  0.248243117E+01
   H  0.283813504E+01  0.465787067E+01  0.311033416E+01
   H -0.528885119E+01 -0.474854967E+00  0.249248934E+01
   H  0.595180983E+01 -0.435686039E+00  0.251037340E+01
  Xx  0.116868914E+03  0.228273779E+03 -0.248616676E+03
    11
 # iter = 14250  time[fs]=14.25000
   N -0.937533088E+00 -0.151575519E+01  0.251027016E+01
   N  0.100125071E+01 -0.144072090E+01  0.249695204E+01
   C -0.664169245E+00  0.147399115E+01  0.250595109E+01
   C -0.151863308E+03 -0.296907027E+03 -0.449002287E+03
   C -0.161781980E+01 -0.326322868E-01  0.249880757E+01
   C  0.143496697E+01  0.111513486E-01  0.250209809E+01
   H -0.274850721E+01  0.484742306E+01  0.248143791E+01
   H  0.288272043E+01  0.472892871E+01  0.312447311E+01
   H -0.536922948E+01 -0.487942323E+00  0.249211558E+01
   H  0.604830907E+01 -0.447607050E+00  0.251012904E+01
  Xx  0.119000760E+03  0.232439684E+03 -0.253224616E+03
    11
 # iter = 14500  time[fs]=14.50000
   N -0.945280386E+00 -0.152320711E+01  0.251035270E+01
   N  0.101069569E+01 -0.144491499E+01  0.249682548E+01
   C -0.664565131E+00  0.147874155E+01  0.250603436E+01
   C -0.154612223E+03 -0.302279536E+03 -0.457137912E+03
   C -0.162331144E+01 -0.344373139E-01  0.249876066E+01
   C  0.143700111E+01  0.763642936E-02  0.250209854E+01
   H -0.278854333E+01  0.491954033E+01  0.248041799E+01
   H  0.292762657E+01  0.480046504E+01  0.313870576E+01
   H -0.545021566E+01 -0.501194893E+00  0.249172769E+01
   H  0.614533530E+01 -0.459699817E+00  0.250985618E+01
  Xx  0.121132607E+03  0.236605589E+03 -0.257832556E+03
    11
 # iter = 14750  time[fs]=14.75000
   N -0.953223321E+00 -0.153048998E+01  0.251039777E+01
   N  0.102020267E+01 -0.144896710E+01  0.249668602E+01
   C -0.665011304E+00  0.148345290E+01  0.250617601E+01
   C -0.157361139E+03 -0.307652045E+03 -0.465273537E+03
   C -0.162867548E+01 -0.364258864E-01  0.249867846E+01
   C  0.143906342E+01  0.388002452E-02  0.250211753E+01
   H -0.282891718E+01  0.499218643E+01  0.247937551E+01
   H  0.297284830E+01  0.487243872E+01  0.315300541E+01
   H -0.553186544E+01 -0.514647342E+00  0.249135567E+01
   H  0.624289629E+01 -0.471943086E+00  0.250958036E+01
  Xx  0.123264453E+03  0.240771494E+03 -0.262440496E+03
    11
 # iter = 15000  time[fs]=15.00000
   N -0.961309483E+00 -0.153759970E+01  0.251046153E+01
   N  0.102974595E+01 -0.145292479E+01  0.249659709E+01
   C -0.665484414E+00  0.148806092E+01  0.250629331E+01
   C -0.160110055E+03 -0.313024554E+03 -0.473409163E+03
   C -0.163394610E+01 -0.385365359E-01  0.249855675E+01
   C  0.144112795E+01 -0.472068365E-04  0.250209309E+01
   H -0.286961867E+01  0.506536850E+01  0.247831548E+01
   H  0.301835564E+01  0.494486029E+01  0.316738009E+01
   H -0.561413784E+01 -0.528277379E+00  0.249098986E+01
   H  0.634096067E+01 -0.484329222E+00  0.250930404E+01
  Xx  0.125396299E+03  0.244937398E+03 -0.267048436E+03
    11
 # iter = 15250  time[fs]=15.25000
   N -0.969512217E+00 -0.154446617E+01  0.251049420E+01
   N  0.103930093E+01 -0.145683996E+01  0.249650085E+01
   C -0.665969099E+00  0.149260593E+01  0.250646185E+01
   C -0.162858970E+03 -0.318397063E+03 -0.481544788E+03
   C -0.163916241E+01 -0.408625557E-01  0.249842238E+01
   C  0.144317915E+01 -0.411830503E-02  0.250206755E+01
   H -0.291064556E+01  0.513905944E+01  0.247723349E+01
   H  0.306415348E+01  0.501773510E+01  0.318184737E+01
   H -0.569698773E+01 -0.542060269E+00  0.249060825E+01
   H  0.643952442E+01 -0.496849401E+00  0.250900507E+01
  Xx  0.127528145E+03  0.249103303E+03 -0.271656376E+03
    11
 # iter = 15500  time[fs]=15.50000
   N -0.977817983E+00 -0.155113421E+01  0.251050421E+01
   N  0.104881367E+01 -0.146063084E+01  0.249638253E+01
   C -0.666479373E+00  0.149710388E+01  0.250656737E+01
   C -0.165607886E+03 -0.323769572E+03 -0.489680413E+03
   C -0.164430252E+01 -0.433802924E-01  0.249834867E+01
   C  0.144526723E+01 -0.839008238E-02  0.250208093E+01
   H -0.295196401E+01  0.521321278E+01  0.247612404E+01
   H  0.311025368E+01  0.509099727E+01  0.319636067E+01
   H -0.578042819E+01 -0.555995910E+00  0.249022063E+01
   H  0.653857987E+01 -0.509505941E+00  0.250867940E+01
  Xx  0.129659991E+03  0.253269208E+03 -0.276264316E+03
    11
 # iter = 15750  time[fs]=15.75000
   N -0.986227091E+00 -0.155763489E+01  0.251050914E+01
   N  0.105835453E+01 -0.146426381E+01  0.249629893E+01
   C -0.667003097E+00  0.150155212E+01  0.250665684E+01
   C -0.168356802E+03 -0.329142081E+03 -0.497816039E+03
   C -0.164932419E+01 -0.460504705E-01  0.249829075E+01
   C  0.144728552E+01 -0.129169606E-01  0.250205161E+01
   H -0.299357268E+01  0.528782810E+01  0.247498755E+01
   H  0.315663988E+01  0.516467733E+01  0.321093865E+01
   H -0.586441532E+01 -0.570102885E+00  0.248983374E+01
   H  0.663808133E+01 -0.522282463E+00  0.250833384E+01
  Xx  0.131791837E+03  0.257435113E+03 -0.280872255E+03
    11
 # iter = 16000  time[fs]=16.00000
   N -0.994769409E+00 -0.156395382E+01  0.251048292E+01
   N  0.106796576E+01 -0.146776589E+01  0.249622559E+01
   C -0.667617380E+00  0.150596885E+01  0.250678336E+01
   C -0.171105718E+03 -0.334514591E+03 -0.505951664E+03
   C -0.165423599E+01 -0.488186198E-01  0.249821486E+01
   C  0.144924524E+01 -0.176853395E-01  0.250202308E+01
   H -0.303546210E+01  0.536287464E+01  0.247384856E+01
   H  0.320328501E+01  0.523873456E+01  0.322560133E+01
   H -0.594893660E+01 -0.584361516E+00  0.248945333E+01
   H  0.673805318E+01 -0.535185120E+00  0.250799140E+01
  Xx  0.133923684E+03  0.261601018E+03 -0.285480195E+03
    11
 # iter = 16250  time[fs]=16.25000
   N -0.100340327E+01 -0.157009795E+01  0.251048948E+01
   N  0.107755011E+01 -0.147110704E+01  0.249611921E+01
   C -0.668310094E+00  0.151034944E+01  0.250689058E+01
   C -0.173854633E+03 -0.339887100E+03 -0.514087289E+03
   C -0.165900599E+01 -0.517066928E-01  0.249809058E+01
   C  0.145119528E+01 -0.227126075E-01  0.250203418E+01
   H -0.307760735E+01  0.543835933E+01  0.247270740E+01
   H  0.325019665E+01  0.531318486E+01  0.324032783E+01
   H -0.603400493E+01 -0.598771400E+00  0.248905777E+01
   H  0.683843987E+01 -0.548221898E+00  0.250765700E+01
  Xx  0.136055530E+03  0.265766922E+03 -0.290088135E+03
    11
 # iter = 16500  time[fs]=16.50000
   N -0.101207978E+01 -0.157608034E+01  0.251046425E+01
   N  0.108712518E+01 -0.147429477E+01  0.249602716E+01
   C -0.669008905E+00  0.151462893E+01  0.250698333E+01
   C -0.176603549E+03 -0.345259609E+03 -0.522222914E+03
   C -0.166367895E+01 -0.546709584E-01  0.249802476E+01
   C  0.145311135E+01 -0.280055987E-01  0.250201018E+01
   H -0.312001616E+01  0.551427402E+01  0.247153653E+01
   H  0.329734980E+01  0.538800388E+01  0.325510952E+01
   H -0.611954486E+01 -0.613321659E+00  0.248866448E+01
   H  0.693925816E+01 -0.561385776E+00  0.250729603E+01
  Xx  0.138187376E+03  0.269932827E+03 -0.294696075E+03
    11
 # iter = 16750  time[fs]=16.75000
   N -0.102074873E+01 -0.158191261E+01  0.251044164E+01
   N  0.109664536E+01 -0.147737069E+01  0.249595311E+01
   C -0.669766038E+00  0.151884274E+01  0.250706944E+01
   C -0.179352465E+03 -0.350632118E+03 -0.530358540E+03
   C -0.166828545E+01 -0.576511172E-01  0.249794448E+01
   C  0.145501348E+01 -0.335320442E-01  0.250198400E+01
   H -0.316268235E+01  0.559058335E+01  0.247034260E+01
   H  0.334474063E+01  0.546317083E+01  0.326995617E+01
   H -0.620560436E+01 -0.627995568E+00  0.248828136E+01
   H  0.704048973E+01 -0.574647490E+00  0.250692070E+01
  Xx  0.140319222E+03  0.274098732E+03 -0.299304015E+03
    11
 # iter = 17000  time[fs]=17.00000
   N -0.102943793E+01 -0.158758598E+01  0.251041579E+01
   N  0.110615222E+01 -0.148028981E+01  0.249585407E+01
   C -0.670591967E+00  0.152297608E+01  0.250718533E+01
   C -0.182101381E+03 -0.356004627E+03 -0.538494165E+03
   C -0.167276396E+01 -0.607268511E-01  0.249783144E+01
   C  0.145690919E+01 -0.393140421E-01  0.250199383E+01
   H -0.320561369E+01  0.566731665E+01  0.246913949E+01
   H  0.339238290E+01  0.553868907E+01  0.328487289E+01
   H -0.629213570E+01 -0.642799607E+00  0.248787724E+01
   H  0.714211127E+01 -0.588029387E+00  0.250655432E+01
  Xx  0.142451068E+03  0.278264637E+03 -0.303911955E+03
    11
 # iter = 17250  time[fs]=17.25000
   N -0.103812621E+01 -0.159310636E+01  0.251037025E+01
   N  0.111568099E+01 -0.148301816E+01  0.249577036E+01
   C -0.671509742E+00  0.152713675E+01  0.250731387E+01
   C -0.184850296E+03 -0.361377136E+03 -0.546629790E+03
   C -0.167709135E+01 -0.639378579E-01  0.249772158E+01
   C  0.145874646E+01 -0.454016779E-01  0.250196841E+01
   H -0.324878260E+01  0.574445078E+01  0.246791126E+01
   H  0.344024790E+01  0.561453304E+01  0.329983393E+01
   H -0.637919632E+01 -0.657778307E+00  0.248747296E+01
   H  0.724411845E+01 -0.601534687E+00  0.250617765E+01
  Xx  0.144582914E+03  0.282430542E+03 -0.308519895E+03
    11
 # iter = 17500  time[fs]=17.50000
   N -0.104681497E+01 -0.159846954E+01  0.251032719E+01
   N  0.112524166E+01 -0.148556908E+01  0.249569045E+01
   C -0.672562273E+00  0.153127668E+01  0.250741290E+01
   C -0.187599212E+03 -0.366749645E+03 -0.554765416E+03
   C -0.168130408E+01 -0.672451805E-01  0.249762332E+01
   C  0.146057455E+01 -0.517579840E-01  0.250193137E+01
   H -0.329217887E+01  0.582196599E+01  0.246665685E+01
   H  0.348836754E+01  0.569071316E+01  0.331487070E+01
   H -0.646671895E+01 -0.672878073E+00  0.248706664E+01
   H  0.734648843E+01 -0.615140790E+00  0.250577768E+01
  Xx  0.146714761E+03  0.286596446E+03 -0.313127835E+03
    11
 # iter = 17750  time[fs]=17.75000
   N -0.105551977E+01 -0.160369159E+01  0.251029493E+01
   N  0.113484752E+01 -0.148792670E+01  0.249556639E+01
   C -0.673653910E+00  0.153537774E+01  0.250748121E+01
   C -0.190348128E+03 -0.372122155E+03 -0.562901041E+03
   C -0.168541852E+01 -0.706626242E-01  0.249757142E+01
   C  0.146235577E+01 -0.584325479E-01  0.250194807E+01
   H -0.333581437E+01  0.589984405E+01  0.246539976E+01
   H  0.353671395E+01  0.576717197E+01  0.332998755E+01
   H -0.655470695E+01 -0.688103758E+00  0.248665028E+01
   H  0.744924560E+01 -0.628862206E+00  0.250536634E+01
  Xx  0.148846607E+03  0.290762351E+03 -0.317735775E+03
    11
 # iter = 18000  time[fs]=18.00000
   N -0.106420411E+01 -0.160876692E+01  0.251025576E+01
   N  0.114449473E+01 -0.149010189E+01  0.249547360E+01
   C -0.674769965E+00  0.153943671E+01  0.250756891E+01
   C -0.193097044E+03 -0.377494664E+03 -0.571036666E+03
   C -0.168941809E+01 -0.741840918E-01  0.249747298E+01
   C  0.146408107E+01 -0.653589312E-01  0.250192599E+01
   H -0.337968529E+01  0.597806699E+01  0.246412715E+01
   H  0.358526074E+01  0.584394415E+01  0.334515092E+01
   H -0.664317134E+01 -0.703468006E+00  0.248622115E+01
   H  0.755233439E+01 -0.642687062E+00  0.250494977E+01
  Xx  0.150978453E+03  0.294928256E+03 -0.322343715E+03
    11
 # iter = 18250  time[fs]=18.25000
   N -0.107288320E+01 -0.161369390E+01  0.251019982E+01
   N  0.115423377E+01 -0.149212413E+01  0.249540603E+01
   C -0.675929910E+00  0.154336735E+01  0.250767806E+01
   C -0.195845959E+03 -0.382867173E+03 -0.579172292E+03
   C -0.169335118E+01 -0.778200021E-01  0.249734224E+01
   C  0.146577233E+01 -0.724441595E-01  0.250189819E+01
   H -0.342375782E+01  0.605665753E+01  0.246281084E+01
   H  0.363401789E+01  0.592103395E+01  0.336035809E+01
   H -0.673204510E+01 -0.718957214E+00  0.248578211E+01
   H  0.765578151E+01 -0.656618117E+00  0.250452469E+01
  Xx  0.153110299E+03  0.299094161E+03 -0.326951655E+03
    11
 # iter = 18500  time[fs]=18.50000
   N -0.108162921E+01 -0.161843818E+01  0.251014334E+01
   N  0.116407785E+01 -0.149395379E+01  0.249529917E+01
   C -0.677130735E+00  0.154727287E+01  0.250777493E+01
   C -0.198594875E+03 -0.388239682E+03 -0.587307917E+03
   C -0.169714879E+01 -0.816301966E-01  0.249722181E+01
   C  0.146740651E+01 -0.797956791E-01  0.250192188E+01
   H -0.346803060E+01  0.613557144E+01  0.246147122E+01
   H  0.368300364E+01  0.599839917E+01  0.337563605E+01
   H -0.682134761E+01 -0.734561088E+00  0.248536142E+01
   H  0.775957406E+01 -0.670651379E+00  0.250409073E+01
  Xx  0.155242145E+03  0.303260066E+03 -0.331559595E+03
    11
 # iter = 18750  time[fs]=18.75000
   N -0.109049280E+01 -0.162299201E+01  0.251004668E+01
   N  0.117406371E+01 -0.149556208E+01  0.249521143E+01
   C -0.678397305E+00  0.155114484E+01  0.250787782E+01
   C -0.201343791E+03 -0.393612191E+03 -0.595443542E+03
   C -0.170076023E+01 -0.855985985E-01  0.249711337E+01
   C  0.146904389E+01 -0.874729546E-01  0.250191393E+01
   H -0.351254833E+01  0.621482699E+01  0.246013981E+01
   H  0.373219001E+01  0.607604519E+01  0.339098250E+01
   H -0.691107436E+01 -0.750295932E+00  0.248494266E+01
   H  0.786370377E+01 -0.684785977E+00  0.250364968E+01
  Xx  0.157373991E+03  0.307425970E+03 -0.336167535E+03
    11
 # iter = 19000  time[fs]=19.00000
   N -0.109943713E+01 -0.162738060E+01  0.250996199E+01
   N  0.118417272E+01 -0.149698370E+01  0.249516553E+01
   C -0.679670992E+00  0.155496623E+01  0.250794958E+01
   C -0.204092707E+03 -0.398984700E+03 -0.603579167E+03
   C -0.170427815E+01 -0.898275578E-01  0.249700511E+01
   C  0.147064739E+01 -0.953734117E-01  0.250189587E+01
   H -0.355725442E+01  0.629441715E+01  0.245879631E+01
   H  0.378155070E+01  0.615398677E+01  0.340636202E+01
   H -0.700118128E+01 -0.766164424E+00  0.248451478E+01
   H  0.796817045E+01 -0.699027210E+00  0.250320106E+01
  Xx  0.159505838E+03  0.311591875E+03 -0.340775475E+03
    11
 # iter = 19250  time[fs]=19.25000
   N -0.110841763E+01 -0.163158515E+01  0.250988805E+01
   N  0.119436083E+01 -0.149821883E+01  0.249510779E+01
   C -0.680954462E+00  0.155879397E+01  0.250803852E+01
   C -0.206841622E+03 -0.404357210E+03 -0.611714793E+03
   C -0.170770800E+01 -0.942668910E-01  0.249685467E+01
   C  0.147221367E+01 -0.103471326E+00  0.250189210E+01
   H -0.360214324E+01  0.637433894E+01  0.245742432E+01
   H  0.383111338E+01  0.623221047E+01  0.342179393E+01
   H -0.709169391E+01 -0.782142734E+00  0.248409038E+01
   H  0.807296467E+01 -0.713373190E+00  0.250274056E+01
  Xx  0.161637684E+03  0.315757780E+03 -0.345383415E+03
    11
 # iter = 19500  time[fs]=19.50000
   N -0.111742448E+01 -0.163563185E+01  0.250976095E+01
   N  0.120466125E+01 -0.149927180E+01  0.249509753E+01
   C -0.682217243E+00  0.156253920E+01  0.250815907E+01
   C -0.209590538E+03 -0.409729719E+03 -0.619850418E+03
   C -0.171110346E+01 -0.989285057E-01  0.249671603E+01
   C  0.147378485E+01 -0.111791731E+00  0.250184747E+01
   H -0.364724089E+01  0.645456742E+01  0.245603818E+01
   H  0.388086983E+01  0.631069890E+01  0.343730849E+01
   H -0.718255089E+01 -0.798227162E+00  0.248366347E+01
   H  0.817808813E+01 -0.727819683E+00  0.250226579E+01
  Xx  0.163769530E+03  0.319923685E+03 -0.349991355E+03
    11
 # iter = 19750  time[fs]=19.75000
   N -0.112648268E+01 -0.163953839E+01  0.250964161E+01
   N  0.121505622E+01 -0.150018809E+01  0.249508778E+01
   C -0.683529460E+00  0.156622150E+01  0.250823234E+01
   C -0.212339454E+03 -0.415102228E+03 -0.627986043E+03
   C -0.171443850E+01 -0.103688742E+00  0.249658802E+01
   C  0.147527343E+01 -0.120337649E+00  0.250182576E+01
   H -0.369253478E+01  0.653508658E+01  0.245463280E+01
   H  0.393078582E+01  0.638945432E+01  0.345286380E+01
   H -0.727379213E+01 -0.814429715E+00  0.248322668E+01
   H  0.828355674E+01 -0.742367125E+00  0.250178127E+01
  Xx  0.165901376E+03  0.324089589E+03 -0.354599295E+03
    11
 # iter = 20000  time[fs]=20.00000
   N -0.113563631E+01 -0.164334663E+01  0.250950277E+01
   N  0.122554475E+01 -0.150095059E+01  0.249506780E+01
   C -0.684913449E+00  0.156986386E+01  0.250829381E+01
   C -0.215088370E+03 -0.420474737E+03 -0.636121669E+03
   C -0.171761140E+01 -0.108545241E+00  0.249649553E+01
   C  0.147674617E+01 -0.129100201E+00  0.250179758E+01
   H -0.373799771E+01  0.661590450E+01  0.245320961E+01
   H  0.398086954E+01  0.646848562E+01  0.346844814E+01
   H -0.736540213E+01 -0.830732078E+00  0.248278432E+01
   H  0.838935429E+01 -0.757014570E+00  0.250128904E+01
  Xx  0.168033222E+03  0.328255494E+03 -0.359207235E+03
    11
 # iter = 20250  time[fs]=20.25000
   N -0.114490539E+01 -0.164701689E+01  0.250933098E+01
   N  0.123612881E+01 -0.150156322E+01  0.249510493E+01
   C -0.686388564E+00  0.157347236E+01  0.250836293E+01
   C -0.217837285E+03 -0.425847246E+03 -0.644257294E+03
   C -0.172063809E+01 -0.113570647E+00  0.249642363E+01
   C  0.147822734E+01 -0.138093697E+00  0.250174105E+01
   H -0.378363713E+01  0.669701616E+01  0.245178400E+01
   H  0.403112959E+01  0.654777186E+01  0.348410553E+01
   H -0.745736225E+01 -0.847140167E+00  0.248234064E+01
   H  0.849546542E+01 -0.771762101E+00  0.250078720E+01
  Xx  0.170165068E+03  0.332421399E+03 -0.363815175E+03
    11
 # iter = 20500  time[fs]=20.50000
   N -0.115425744E+01 -0.165055448E+01  0.250915249E+01
   N  0.124679736E+01 -0.150198362E+01  0.249512595E+01
   C -0.687924149E+00  0.157706851E+01  0.250842967E+01
   C -0.220586201E+03 -0.431219755E+03 -0.652392919E+03
   C -0.172355530E+01 -0.118775221E+00  0.249634470E+01
   C  0.147964473E+01 -0.147344089E+00  0.250170716E+01
   H -0.382946645E+01  0.677839497E+01  0.245034799E+01
   H  0.408155662E+01  0.662730436E+01  0.349981996E+01
   H -0.754967650E+01 -0.863657959E+00  0.248190333E+01
   H  0.860190160E+01 -0.786608990E+00  0.250027865E+01
  Xx  0.172296915E+03  0.336587304E+03 -0.368423115E+03
    11
 # iter = 20750  time[fs]=20.75000
   N -0.116368295E+01 -0.165401151E+01  0.250898889E+01
   N  0.125750218E+01 -0.150220768E+01  0.249514030E+01
   C -0.689483276E+00  0.158058713E+01  0.250850260E+01
   C -0.223335117E+03 -0.436592264E+03 -0.660528544E+03
   C -0.172642705E+01 -0.124100127E+00  0.249624267E+01
   C  0.148105405E+01 -0.156854473E+00  0.250166101E+01
   H -0.387546657E+01  0.686004434E+01  0.244888716E+01
   H  0.413214313E+01  0.670709472E+01  0.351555048E+01
   H -0.764232953E+01 -0.880266184E+00  0.248146720E+01
   H  0.870865145E+01 -0.801551484E+00  0.249976443E+01
  Xx  0.174428761E+03  0.340753209E+03 -0.373031055E+03
    11
 # iter = 21000  time[fs]=21.00000
   N -0.117317185E+01 -0.165735284E+01  0.250880391E+01
   N  0.126818924E+01 -0.150227386E+01  0.249518807E+01
   C -0.691060026E+00  0.158407537E+01  0.250855882E+01
   C -0.226084033E+03 -0.441964774E+03 -0.668664170E+03
   C -0.172927354E+01 -0.129577058E+00  0.249618316E+01
   C  0.148248493E+01 -0.166600159E+00  0.250159923E+01
   H -0.392161838E+01  0.694196983E+01  0.244741178E+01
   H  0.418289368E+01  0.678712974E+01  0.353132165E+01
   H -0.773533523E+01 -0.896979646E+00  0.248102363E+01
   H  0.881571108E+01 -0.816590479E+00  0.249924238E+01
  Xx  0.176560607E+03  0.344919113E+03 -0.377638995E+03
    11
 # iter = 21250  time[fs]=21.25000
   N -0.118277042E+01 -0.166057956E+01  0.250861334E+01
   N  0.127887527E+01 -0.150217953E+01  0.249520936E+01
   C -0.692661832E+00  0.158754415E+01  0.250861838E+01
   C -0.228832948E+03 -0.447337283E+03 -0.676799795E+03
   C -0.173206826E+01 -0.135235255E+00  0.249612861E+01
   C  0.148393729E+01 -0.176541531E+00  0.250155291E+01
   H -0.396794020E+01  0.702415715E+01  0.244593278E+01
   H  0.423379313E+01  0.686738003E+01  0.354715763E+01
   H -0.782867719E+01 -0.913806075E+00  0.248057026E+01
   H  0.892306986E+01 -0.831723046E+00  0.249871185E+01
  Xx  0.178692453E+03  0.349085018E+03 -0.382246935E+03
    11
 # iter = 21500  time[fs]=21.50000
   N -0.119255006E+01 -0.166369718E+01  0.250841314E+01
   N  0.128960414E+01 -0.150191128E+01  0.249524569E+01
   C -0.694293881E+00  0.159099652E+01  0.250868310E+01
   C -0.231581864E+03 -0.452709792E+03 -0.684935420E+03
   C -0.173471887E+01 -0.141089744E+00  0.249604620E+01
   C  0.148536292E+01 -0.186708011E+00  0.250148310E+01
   H -0.401443167E+01  0.710660847E+01  0.244443091E+01
   H  0.428485362E+01  0.694787647E+01  0.356303908E+01
   H -0.792236257E+01 -0.930735983E+00  0.248011699E+01
   H  0.903072400E+01 -0.846949759E+00  0.249817105E+01
  Xx  0.180824299E+03  0.353250923E+03 -0.386854875E+03
    11
 # iter = 21750  time[fs]=21.75000
   N -0.120251405E+01 -0.166671507E+01  0.250819908E+01
   N  0.130033302E+01 -0.150146416E+01  0.249530013E+01
   C -0.696005414E+00  0.159444290E+01  0.250874554E+01
   C -0.234330780E+03 -0.458082301E+03 -0.693071046E+03
   C -0.173719889E+01 -0.147164167E+00  0.249599015E+01
   C  0.148674001E+01 -0.197111005E+00  0.250141680E+01
   H -0.406107540E+01  0.718932042E+01  0.244290700E+01
   H  0.433606453E+01  0.702861329E+01  0.357894518E+01
   H -0.801637742E+01 -0.947769013E+00  0.247966855E+01
   H  0.913867082E+01 -0.862269147E+00  0.249762084E+01
  Xx  0.182956145E+03  0.357416828E+03 -0.391462814E+03
    11
 # iter = 22000  time[fs]=22.00000
   N -0.121261601E+01 -0.166964561E+01  0.250798982E+01
   N  0.131104715E+01 -0.150088518E+01  0.249532731E+01
   C -0.697739518E+00  0.159783445E+01  0.250883414E+01
   C -0.237079696E+03 -0.463454810E+03 -0.701206671E+03
   C -0.173959339E+01 -0.153356076E+00  0.249589101E+01
   C  0.148811600E+01 -0.207723029E+00  0.250137474E+01
   H -0.410787058E+01  0.727228924E+01  0.244138701E+01
   H  0.438742726E+01  0.710957466E+01  0.359490149E+01
   H -0.811072313E+01 -0.964912143E+00  0.247921143E+01
   H  0.924689893E+01 -0.877678444E+00  0.249706217E+01
  Xx  0.185087992E+03  0.361582733E+03 -0.396070754E+03
    11
 # iter = 22250  time[fs]=22.25000
   N -0.122275698E+01 -0.167249617E+01  0.250779652E+01
   N  0.132169097E+01 -0.150019781E+01  0.249538296E+01
   C -0.699507593E+00  0.160117365E+01  0.250892177E+01
   C -0.239828611E+03 -0.468827319E+03 -0.709342296E+03
   C -0.174194866E+01 -0.159672892E+00  0.249574744E+01
   C  0.148954796E+01 -0.218484484E+00  0.250130316E+01
   H -0.415483374E+01  0.735552403E+01  0.243986112E+01
   H  0.443895077E+01  0.719075473E+01  0.361091856E+01
   H -0.820540443E+01 -0.982158934E+00  0.247874978E+01
   H  0.935540142E+01 -0.893174858E+00  0.249649573E+01
  Xx  0.187219838E+03  0.365748637E+03 -0.400678694E+03
    11
 # iter = 22500  time[fs]=22.50000
   N -0.123298032E+01 -0.167524401E+01  0.250759036E+01
   N  0.133228812E+01 -0.149941744E+01  0.249545108E+01
   C -0.701319711E+00  0.160445456E+01  0.250901997E+01
   C -0.242577527E+03 -0.474199829E+03 -0.717477921E+03
   C -0.174425494E+01 -0.166123324E+00  0.249560036E+01
   C  0.149098221E+01 -0.229397339E+00  0.250125625E+01
   H -0.420194529E+01  0.743899466E+01  0.243830767E+01
   H  0.449062431E+01  0.727215117E+01  0.362696667E+01
   H -0.830040415E+01 -0.999506685E+00  0.247828918E+01
   H  0.946417677E+01 -0.908757652E+00  0.249592114E+01
  Xx  0.189351684E+03  0.369914542E+03 -0.405286634E+03
    11
 # iter = 22750  time[fs]=22.75000
   N -0.124330523E+01 -0.167787015E+01  0.250735373E+01
   N  0.134284010E+01 -0.149854070E+01  0.249552939E+01
   C -0.703189638E+00  0.160769783E+01  0.250908766E+01
   C -0.245326443E+03 -0.479572338E+03 -0.725613547E+03
   C -0.174645404E+01 -0.172754932E+00  0.249550453E+01
   C  0.149247731E+01 -0.240501466E+00  0.250116478E+01
   H -0.424920686E+01  0.752272899E+01  0.243674486E+01
   H  0.454244362E+01  0.735376048E+01  0.364304565E+01
   H -0.839573974E+01 -0.101696494E+01  0.247782455E+01
   H  0.957322006E+01 -0.924427177E+00  0.249533620E+01
  Xx  0.191483530E+03  0.374080447E+03 -0.409894574E+03
    11
 # iter = 23000  time[fs]=23.00000
   N -0.125370691E+01 -0.168037410E+01  0.250711878E+01
   N  0.135336702E+01 -0.149761849E+01  0.249559277E+01
   C -0.705139127E+00  0.161093565E+01  0.250913719E+01
   C -0.248075358E+03 -0.484944847E+03 -0.733749172E+03
   C -0.174855275E+01 -0.179609333E+00  0.249542375E+01
   C  0.149399381E+01 -0.251725543E+00  0.250109129E+01
   H -0.429662195E+01  0.760671778E+01  0.243518830E+01
   H  0.459441714E+01  0.743558712E+01  0.365918496E+01
   H -0.849140145E+01 -0.103452765E+01  0.247735550E+01
   H  0.968252948E+01 -0.940182775E+00  0.249474115E+01
  Xx  0.193615376E+03  0.378246352E+03 -0.414502514E+03
    11
 # iter = 23250  time[fs]=23.25000
   N -0.126420871E+01 -0.168276197E+01  0.250687990E+01
   N  0.136388327E+01 -0.149670382E+01  0.249566221E+01
   C -0.707090081E+00  0.161414860E+01  0.250923369E+01
   C -0.250824274E+03 -0.490317356E+03 -0.741884797E+03
   C -0.175055072E+01 -0.186657403E+00  0.249530206E+01
   C  0.149551570E+01 -0.262956753E+00  0.250103666E+01
   H -0.434418776E+01  0.769093769E+01  0.243361545E+01
   H  0.464653703E+01  0.751762209E+01  0.367537362E+01
   H -0.858738803E+01 -0.105219687E+01  0.247688117E+01
   H  0.979210124E+01 -0.956021636E+00  0.249413718E+01
  Xx  0.195747222E+03  0.382412257E+03 -0.419110454E+03
    11
 # iter = 23500  time[fs]=23.50000
   N -0.127475819E+01 -0.168507238E+01  0.250665484E+01
   N  0.137440774E+01 -0.149581929E+01  0.249571053E+01
   C -0.709079592E+00  0.161736140E+01  0.250932013E+01
   C -0.253573190E+03 -0.495689865E+03 -0.750020423E+03
   C -0.175247521E+01 -0.193864003E+00  0.249516982E+01
   C  0.149706253E+01 -0.274171223E+00  0.250098655E+01
   H -0.439190186E+01  0.777540283E+01  0.243201826E+01
   H  0.469879374E+01  0.759985441E+01  0.369159165E+01
   H -0.868369850E+01 -0.106996896E+01  0.247640162E+01
   H  0.990192973E+01 -0.971943287E+00  0.249352510E+01
  Xx  0.197879069E+03  0.386578161E+03 -0.423718394E+03
    11
 # iter = 23750  time[fs]=23.75000
   N -0.128531302E+01 -0.168729863E+01  0.250638568E+01
   N  0.138497794E+01 -0.149497302E+01  0.249576760E+01
   C -0.711090031E+00  0.162052193E+01  0.250938747E+01
   C -0.256322106E+03 -0.501062374E+03 -0.758156048E+03
   C -0.175434447E+01 -0.201242869E+00  0.249508505E+01
   C  0.149859650E+01 -0.285394101E+00  0.250093230E+01
   H -0.443976013E+01  0.786011606E+01  0.243041808E+01
   H  0.475120308E+01  0.768230166E+01  0.370785315E+01
   H -0.878032499E+01 -0.108784635E+01  0.247591903E+01
   H  0.100120103E+02 -0.987950418E+00  0.249290539E+01
  Xx  0.200010915E+03  0.390744066E+03 -0.428326334E+03
    11
 # iter = 24000  time[fs]=24.00000
   N -0.129589691E+01 -0.168944997E+01  0.250610789E+01
   N  0.139554185E+01 -0.149420120E+01  0.249585934E+01
   C -0.713154987E+00  0.162366902E+01  0.250940870E+01
   C -0.259071021E+03 -0.506434883E+03 -0.766291673E+03
   C -0.175613538E+01 -0.208782977E+00  0.249505758E+01
   C  0.150017525E+01 -0.296570544E+00  0.250087645E+01
   H -0.448777095E+01  0.794506981E+01  0.242881481E+01
   H  0.480376426E+01  0.776496267E+01  0.372416805E+01
   H -0.887726229E+01 -0.110582823E+01  0.247543655E+01
   H  0.101223401E+02 -0.100404212E+01  0.249227772E+01
  Xx  0.202142761E+03  0.394909971E+03 -0.432934274E+03
    11
 # iter = 24250  time[fs]=24.25000
   N -0.130653313E+01 -0.169151043E+01  0.250582145E+01
   N  0.140616152E+01 -0.149358160E+01  0.249595460E+01
   C -0.715243256E+00  0.162680737E+01  0.250946877E+01
   C -0.261819937E+03 -0.511807393E+03 -0.774427298E+03
   C -0.175781743E+01 -0.216512402E+00  0.249499414E+01
   C  0.150179106E+01 -0.307597085E+00  0.250080001E+01
   H -0.453593583E+01  0.803026527E+01  0.242719271E+01
   H  0.485646948E+01  0.784782222E+01  0.374052609E+01
   H -0.897451043E+01 -0.112391556E+01  0.247495319E+01
   H  0.102329103E+02 -0.102021700E+01  0.249164110E+01
  Xx  0.204274607E+03  0.399075876E+03 -0.437542214E+03
    11
 # iter = 24500  time[fs]=24.50000
   N -0.131713158E+01 -0.169349313E+01  0.250555609E+01
   N  0.141679437E+01 -0.149318165E+01  0.249604730E+01
   C -0.717378256E+00  0.162992629E+01  0.250953813E+01
   C -0.264568853E+03 -0.517179902E+03 -0.782562924E+03
   C -0.175948508E+01 -0.224402204E+00  0.249487453E+01
   C  0.150350787E+01 -0.318401878E+00  0.250072940E+01
   H -0.458425418E+01  0.811571154E+01  0.242555388E+01
   H  0.490932634E+01  0.793088442E+01  0.375692169E+01
   H -0.907206067E+01 -0.114210902E+01  0.247446825E+01
   H  0.103437162E+02 -0.103647435E+01  0.249099555E+01
  Xx  0.206406453E+03  0.403241780E+03 -0.442150154E+03
    11
 # iter = 24750  time[fs]=24.75000
   N -0.132773063E+01 -0.169537422E+01  0.250528957E+01
   N  0.142748707E+01 -0.149306914E+01  0.249616572E+01
   C -0.719541402E+00  0.163303896E+01  0.250959923E+01
   C -0.267317769E+03 -0.522552411E+03 -0.790698549E+03
   C -0.176109393E+01 -0.232459599E+00  0.249476853E+01
   C  0.150523647E+01 -0.328930823E+00  0.250065377E+01
   H -0.463273107E+01  0.820141239E+01  0.242390751E+01
   H  0.496234107E+01  0.801415326E+01  0.377336147E+01
   H -0.916990773E+01 -0.116040874E+01  0.247398098E+01
   H  0.104547570E+02 -0.105281418E+01  0.249034168E+01
  Xx  0.208538299E+03  0.407407685E+03 -0.446758094E+03
    11
 # iter = 25000  time[fs]=25.00000
   N -0.133834549E+01 -0.169716592E+01  0.250499123E+01
   N  0.143819679E+01 -0.149329920E+01  0.249627262E+01
   C -0.721731627E+00  0.163610623E+01  0.250967124E+01
   C -0.270066684E+03 -0.527924920E+03 -0.798834174E+03
   C -0.176262026E+01 -0.240659599E+00  0.249469043E+01
   C  0.150706180E+01 -0.339131007E+00  0.250057349E+01
   H -0.468136713E+01  0.828735760E+01  0.242224850E+01
   H  0.501550804E+01  0.809762294E+01  0.378984816E+01
   H -0.926804729E+01 -0.117881398E+01  0.247349044E+01
   H  0.105660305E+02 -0.106923626E+01  0.248967947E+01
  Xx  0.210670146E+03  0.411573590E+03 -0.451366034E+03
    11
 # iter = 25250  time[fs]=25.25000
   N -0.134898543E+01 -0.169885091E+01  0.250472403E+01
   N  0.144899346E+01 -0.149391286E+01  0.249636936E+01
   C -0.723966251E+00  0.163917131E+01  0.250970644E+01
   C -0.272815600E+03 -0.533297429E+03 -0.806969800E+03
   C -0.176405301E+01 -0.249032582E+00  0.249460009E+01
   C  0.150887579E+01 -0.348930249E+00  0.250049589E+01
   H -0.473015927E+01  0.837354134E+01  0.242057182E+01
   H  0.506882708E+01  0.818130086E+01  0.380637859E+01
   H -0.936647303E+01 -0.119732099E+01  0.247299675E+01
   H  0.106775362E+02 -0.108574061E+01  0.248900873E+01
  Xx  0.212801992E+03  0.415739495E+03 -0.455973974E+03
    11
 # iter = 25500  time[fs]=25.50000
   N -0.135964553E+01 -0.170045146E+01  0.250441916E+01
   N  0.145982842E+01 -0.149492966E+01  0.249648568E+01
   C -0.726246479E+00  0.164222690E+01  0.250976568E+01
   C -0.275564516E+03 -0.538669938E+03 -0.815105425E+03
   C -0.176540588E+01 -0.257652230E+00  0.249452320E+01
   C  0.151072410E+01 -0.358290806E+00  0.250042254E+01
   H -0.477910986E+01  0.845996999E+01  0.241888333E+01
   H  0.512230158E+01  0.826518582E+01  0.382295139E+01
   H -0.946517909E+01 -0.121593119E+01  0.247250099E+01
   H  0.107892693E+02 -0.110232727E+01  0.248832959E+01
  Xx  0.214933838E+03  0.419905400E+03 -0.460581914E+03
    11
 # iter = 25750  time[fs]=25.75000
   N -0.137034484E+01 -0.170196421E+01  0.250409967E+01
   N  0.147073634E+01 -0.149640728E+01  0.249657994E+01
   C -0.728515772E+00  0.164528300E+01  0.250981768E+01
   C -0.278313432E+03 -0.544042448E+03 -0.823241050E+03
   C -0.176670757E+01 -0.266378868E+00  0.249447586E+01
   C  0.151258240E+01 -0.367136882E+00  0.250037004E+01
   H -0.482821235E+01  0.854663513E+01  0.241718269E+01
   H  0.517592760E+01  0.834926683E+01  0.383956676E+01
   H -0.956416678E+01 -0.123464142E+01  0.247200399E+01
   H  0.109012220E+02 -0.111899336E+01  0.248764179E+01
  Xx  0.217065684E+03  0.424071304E+03 -0.465189854E+03
    11
 # iter = 26000  time[fs]=26.00000
   N -0.138111249E+01 -0.170342464E+01  0.250379641E+01
   N  0.148165045E+01 -0.149836116E+01  0.249666146E+01
   C -0.730818847E+00  0.164830833E+01  0.250986604E+01
   C -0.281062347E+03 -0.549414957E+03 -0.831376676E+03
   C -0.176793094E+01 -0.275266515E+00  0.249438743E+01
   C  0.151452808E+01 -0.375456903E+00  0.250032115E+01
   H -0.487747061E+01  0.863354282E+01  0.241546742E+01
   H  0.522971023E+01  0.843354915E+01  0.385622539E+01
   H -0.966342963E+01 -0.125345361E+01  0.247150536E+01
   H  0.110133890E+02 -0.113573888E+01  0.248694554E+01
  Xx  0.219197530E+03  0.428237209E+03 -0.469797794E+03
    11
 # iter = 26250  time[fs]=26.25000
   N -0.139189667E+01 -0.170478276E+01  0.250347590E+01
   N  0.149261466E+01 -0.150079791E+01  0.249675203E+01
   C -0.733133673E+00  0.165135083E+01  0.250991490E+01
   C -0.283811263E+03 -0.554787466E+03 -0.839512301E+03
   C -0.176915288E+01 -0.284318450E+00  0.249431556E+01
   C  0.151648243E+01 -0.383253371E+00  0.250028734E+01
   H -0.492687814E+01  0.872068360E+01  0.241374097E+01
   H  0.528364356E+01  0.851802876E+01  0.387292501E+01
   H -0.976296459E+01 -0.127236404E+01  0.247100568E+01
   H  0.111257685E+02 -0.115256276E+01  0.248624113E+01
  Xx  0.221329376E+03  0.432403114E+03 -0.474405734E+03
    11
 # iter = 26500  time[fs]=26.50000
   N -0.140278227E+01 -0.170605019E+01  0.250314690E+01
   N  0.150357865E+01 -0.150373462E+01  0.249683847E+01
   C -0.735471645E+00  0.165435135E+01  0.250993304E+01
   C -0.286560179E+03 -0.560159975E+03 -0.847647926E+03
   C -0.177031932E+01 -0.293562304E+00  0.249428761E+01
   C  0.151852137E+01 -0.390509170E+00  0.250026503E+01
   H -0.497643500E+01  0.880805601E+01  0.241200307E+01
   H  0.533772716E+01  0.860270417E+01  0.388966687E+01
   H -0.986276611E+01 -0.129137219E+01  0.247050457E+01
   H  0.112383573E+02 -0.116946433E+01  0.248552880E+01
  Xx  0.223461223E+03  0.436569019E+03 -0.479013674E+03
    11
 # iter = 26750  time[fs]=26.75000
   N -0.141378001E+01 -0.170720809E+01  0.250281400E+01
   N  0.151456403E+01 -0.150723127E+01  0.249691459E+01
   C -0.737843309E+00  0.165737103E+01  0.250996101E+01
   C -0.289309095E+03 -0.565532484E+03 -0.855783551E+03
   C -0.177140590E+01 -0.302976595E+00  0.249423357E+01
   C  0.152057830E+01 -0.397157026E+00  0.250023547E+01
   H -0.502613631E+01  0.889565137E+01  0.241025292E+01
   H  0.539195593E+01  0.868757367E+01  0.390645147E+01
   H -0.996282854E+01 -0.131047412E+01  0.247000139E+01
   H  0.113511548E+02 -0.118644171E+01  0.248480861E+01
  Xx  0.225593069E+03  0.440734924E+03 -0.483621614E+03
    11
 # iter = 27000  time[fs]=27.00000
   N -0.142487852E+01 -0.170828116E+01  0.250247595E+01
   N  0.152551404E+01 -0.151133621E+01  0.249699706E+01
   C -0.740228515E+00  0.166036811E+01  0.250998863E+01
   C -0.292058010E+03 -0.570904993E+03 -0.863919177E+03
   C -0.177246095E+01 -0.312560567E+00  0.249419272E+01
   C  0.152268273E+01 -0.403116122E+00  0.250021309E+01
   H -0.507598155E+01  0.898346706E+01  0.240849021E+01
   H  0.544632808E+01  0.877263608E+01  0.392327854E+01
   H -0.100631422E+02 -0.132966943E+01  0.246949667E+01
   H  0.114641593E+02 -0.120349400E+01  0.248408102E+01
  Xx  0.227724915E+03  0.444900828E+03 -0.488229554E+03
    11
 # iter = 27250  time[fs]=27.25000
   N -0.143609509E+01 -0.170922934E+01  0.250212479E+01
   N  0.153644364E+01 -0.151607723E+01  0.249710262E+01
   C -0.742655875E+00  0.166334348E+01  0.251003967E+01
   C -0.294806926E+03 -0.576277503E+03 -0.872054802E+03
   C -0.177340666E+01 -0.322322082E+00  0.249414346E+01
   C  0.152478713E+01 -0.408339278E+00  0.250018023E+01
   H -0.512596669E+01  0.907149650E+01  0.240671464E+01
   H  0.550084065E+01  0.885788804E+01  0.394014760E+01
   H -0.101637039E+02 -0.134895585E+01  0.246899007E+01
   H  0.115773671E+02 -0.122061959E+01  0.248334616E+01
  Xx  0.229856761E+03  0.449066733E+03 -0.492837494E+03
    11
 # iter = 27500  time[fs]=27.50000
   N -0.144744236E+01 -0.171004323E+01  0.250179796E+01
   N  0.154733611E+01 -0.152144546E+01  0.249721260E+01
   C -0.745138824E+00  0.166634306E+01  0.251006465E+01
   C -0.297555842E+03 -0.581650012E+03 -0.880190427E+03
   C -0.177428164E+01 -0.332304160E+00  0.249407661E+01
   C  0.152693876E+01 -0.412818534E+00  0.250012716E+01
   H -0.517608948E+01  0.915973639E+01  0.240492581E+01
   H  0.555549198E+01  0.894332640E+01  0.395705734E+01
   H -0.102645100E+02 -0.136833184E+01  0.246848115E+01
   H  0.116907735E+02 -0.123781700E+01  0.248260400E+01
  Xx  0.231988607E+03  0.453232638E+03 -0.497445434E+03
    11
 # iter = 27750  time[fs]=27.75000
   N -0.145889661E+01 -0.171073624E+01  0.250143994E+01
   N  0.155819676E+01 -0.152738784E+01  0.249732170E+01
   C -0.747608615E+00  0.166933471E+01  0.251004214E+01
   C -0.300304758E+03 -0.587022521E+03 -0.888326053E+03
   C -0.177512696E+01 -0.342490903E+00  0.249406855E+01
   C  0.152909333E+01 -0.416617836E+00  0.250007962E+01
   H -0.522634852E+01  0.924818566E+01  0.240312408E+01
   H  0.561028154E+01  0.902894657E+01  0.397400640E+01
   H -0.103655596E+02 -0.138779618E+01  0.246796984E+01
   H  0.118043721E+02 -0.125508529E+01  0.248185415E+01
  Xx  0.234120453E+03  0.457398543E+03 -0.502053374E+03
    11
 # iter = 28000  time[fs]=28.00000
   N -0.147041941E+01 -0.171134657E+01  0.250107196E+01
   N  0.156900846E+01 -0.153381551E+01  0.249746197E+01
   C -0.750092267E+00  0.167231206E+01  0.251006779E+01
   C -0.303053673E+03 -0.592395030E+03 -0.896461678E+03
   C -0.177595865E+01 -0.352847064E+00  0.249405706E+01
   C  0.153127901E+01 -0.419848565E+00  0.250002299E+01
   H -0.527674275E+01  0.933684283E+01  0.240131043E+01
   H  0.566520903E+01  0.911474442E+01  0.399099441E+01
   H -0.104668502E+02 -0.140734846E+01  0.246745595E+01
   H  0.119181567E+02 -0.127242407E+01  0.248109659E+01
  Xx  0.236252300E+03  0.461564448E+03 -0.506661313E+03
    11
 # iter = 28250  time[fs]=28.25000
   N -0.148199954E+01 -0.171190323E+01  0.250073440E+01
   N  0.157980552E+01 -0.154068093E+01  0.249759261E+01
   C -0.752593201E+00  0.167531151E+01  0.251009868E+01
   C -0.305802589E+03 -0.597767539E+03 -0.904597303E+03
   C -0.177678924E+01 -0.363349218E+00  0.249400475E+01
   C  0.153347237E+01 -0.422572794E+00  0.249998130E+01
   H -0.532727110E+01  0.942570655E+01  0.239948522E+01
   H  0.572027345E+01  0.920071816E+01  0.400802035E+01
   H -0.105683785E+02 -0.142698834E+01  0.246693936E+01
   H  0.120321228E+02 -0.128983260E+01  0.248033127E+01
  Xx  0.238384146E+03  0.465730352E+03 -0.511269253E+03
    11
 # iter = 28500  time[fs]=28.50000
   N -0.149369752E+01 -0.171239608E+01  0.250035480E+01
   N  0.159056130E+01 -0.154795705E+01  0.249772317E+01
   C -0.755145752E+00  0.167834354E+01  0.251010506E+01
   C -0.308551505E+03 -0.603140048E+03 -0.912732928E+03
   C -0.177749350E+01 -0.374023178E+00  0.249398998E+01
   C  0.153568587E+01 -0.424804216E+00  0.249992910E+01
   H -0.537793107E+01  0.951477435E+01  0.239764853E+01
   H  0.577547189E+01  0.928686460E+01  0.402508325E+01
   H -0.106701411E+02 -0.144671516E+01  0.246642020E+01
   H  0.121462668E+02 -0.130730935E+01  0.247955824E+01
  Xx  0.240515992E+03  0.469896257E+03 -0.515877193E+03
    11
 # iter = 28750  time[fs]=28.75000
   N -0.150547118E+01 -0.171280992E+01  0.250000511E+01
   N  0.160130238E+01 -0.155560576E+01  0.249785704E+01
   C -0.757736443E+00  0.168139760E+01  0.251010594E+01
   C -0.311300421E+03 -0.608512557E+03 -0.920868554E+03
   C -0.177814252E+01 -0.384861698E+00  0.249396262E+01
   C  0.153787151E+01 -0.426560095E+00  0.249990002E+01
   H -0.542872005E+01  0.960404043E+01  0.239580063E+01
   H  0.583080080E+01  0.937318001E+01  0.404218297E+01
   H -0.107721308E+02 -0.146652547E+01  0.246589856E+01
   H  0.122605884E+02 -0.132485255E+01  0.247877809E+01
  Xx  0.242647838E+03  0.474062162E+03 -0.520485133E+03
    11
 # iter = 29000  time[fs]=29.00000
   N -0.151725478E+01 -0.171315075E+01  0.249964446E+01
   N  0.161205037E+01 -0.156359662E+01  0.249800763E+01
   C -0.760285565E+00  0.168444866E+01  0.251009429E+01
   C -0.314049336E+03 -0.613885067E+03 -0.929004179E+03
   C -0.177880289E+01 -0.395878477E+00  0.249394849E+01
   C  0.154003637E+01 -0.427863515E+00  0.249985944E+01
   H -0.547963604E+01  0.969350064E+01  0.239394130E+01
   H  0.588625796E+01  0.945966242E+01  0.405931886E+01
   H -0.108743427E+02 -0.148641723E+01  0.246537457E+01
   H  0.123750848E+02 -0.134246089E+01  0.247799097E+01
  Xx  0.244779684E+03  0.478228067E+03 -0.525093073E+03
    11
 # iter = 29250  time[fs]=29.25000
   N -0.152902651E+01 -0.171343525E+01  0.249926084E+01
   N  0.162280381E+01 -0.157189145E+01  0.249812823E+01
   C -0.762836780E+00  0.168753223E+01  0.251010091E+01
   C -0.316798252E+03 -0.619257576E+03 -0.937139804E+03
   C -0.177950361E+01 -0.407084765E+00  0.249392599E+01
   C  0.154219235E+01 -0.428765416E+00  0.249983726E+01
   H -0.553067605E+01  0.978315002E+01  0.239207103E+01
   H  0.594184065E+01  0.954630911E+01  0.407649077E+01
   H -0.109767724E+02 -0.150638873E+01  0.246484848E+01
   H  0.124897544E+02 -0.136013353E+01  0.247719720E+01
  Xx  0.246911530E+03  0.482393971E+03 -0.529701013E+03
    11
 # iter = 29500  time[fs]=29.50000
   N -0.154081861E+01 -0.171366876E+01  0.249891801E+01
   N  0.163357430E+01 -0.158044135E+01  0.249826689E+01
   C -0.765410653E+00  0.169061723E+01  0.251010679E+01
   C -0.319547168E+03 -0.624630085E+03 -0.945275430E+03
   C -0.178014077E+01 -0.418398471E+00  0.249388428E+01
   C  0.154431123E+01 -0.429331542E+00  0.249979625E+01
   H -0.558183584E+01  0.987298373E+01  0.239018992E+01
   H  0.599754507E+01  0.963311703E+01  0.409369801E+01
   H -0.110794177E+02 -0.152643859E+01  0.246432061E+01
   H  0.126045930E+02 -0.137786919E+01  0.247639720E+01
  Xx  0.249043377E+03  0.486559876E+03 -0.534308953E+03
    11
 # iter = 29750  time[fs]=29.75000
   N -0.155261619E+01 -0.171389178E+01  0.249851731E+01
   N  0.164438455E+01 -0.158918926E+01  0.249839819E+01
   C -0.768025314E+00  0.169369418E+01  0.251009998E+01
   C -0.322296084E+03 -0.630002594E+03 -0.953411055E+03
   C -0.178072626E+01 -0.429811171E+00  0.249391205E+01
   C  0.154642160E+01 -0.429629169E+00  0.249977981E+01
   H -0.563311547E+01  0.996300027E+01  0.238829795E+01
   H  0.605337089E+01  0.972008518E+01  0.411094059E+01
   H -0.111822731E+02 -0.154656662E+01  0.246379078E+01
   H  0.127195969E+02 -0.139566757E+01  0.247559099E+01
  Xx  0.251175223E+03  0.490725781E+03 -0.538916893E+03
    11
 # iter = 30000  time[fs]=30.00000
   N -0.156434400E+01 -0.171408558E+01  0.249814466E+01
   N  0.165523160E+01 -0.159809945E+01  0.249852814E+01
   C -0.770645409E+00  0.169682112E+01  0.251006613E+01
   C -0.325044999E+03 -0.635375103E+03 -0.961546680E+03
   C -0.178139080E+01 -0.441371019E+00  0.249391992E+01
   C  0.154852603E+01 -0.429717484E+00  0.249973800E+01
   H -0.568451370E+01  0.100531956E+02  0.238639495E+01
   H  0.610931643E+01  0.980721087E+01  0.412821780E+01
   H -0.112853327E+02 -0.156677123E+01  0.246325873E+01
   H  0.128347649E+02 -0.141352775E+01  0.247477841E+01
  Xx  0.253307069E+03  0.494891686E+03 -0.543524833E+03
    11
 # iter = 30250  time[fs]=30.25000
   N -0.157607684E+01 -0.171427090E+01  0.249776756E+01
   N  0.166610992E+01 -0.160717382E+01  0.249864409E+01
   C -0.773248687E+00  0.169994575E+01  0.251004605E+01
   C -0.327793915E+03 -0.640747612E+03 -0.969682305E+03
   C -0.178205098E+01 -0.453037957E+00  0.249394640E+01
   C  0.155062319E+01 -0.429611680E+00  0.249971295E+01
   H -0.573602895E+01  0.101435675E+02  0.238448160E+01
   H  0.616537987E+01  0.989449081E+01  0.414552960E+01
   H -0.113885928E+02 -0.158705145E+01  0.246272508E+01
   H  0.129500938E+02 -0.143144844E+01  0.247395975E+01
  Xx  0.255438915E+03  0.499057591E+03 -0.548132773E+03
    11
 # iter = 30500  time[fs]=30.50000
   N -0.158775678E+01 -0.171447433E+01  0.249740665E+01
   N  0.167703376E+01 -0.161639833E+01  0.249877541E+01
   C -0.775882164E+00  0.170308014E+01  0.251005284E+01
   C -0.330542831E+03 -0.646120122E+03 -0.977817931E+03
   C -0.178272674E+01 -0.464722569E+00  0.249394429E+01
   C  0.155272363E+01 -0.429318129E+00  0.249968167E+01
   H -0.578765758E+01  0.102341124E+02  0.238255830E+01
   H  0.622155790E+01  0.998192189E+01  0.416287477E+01
   H -0.114920517E+02 -0.160740487E+01  0.246219004E+01
   H  0.130655826E+02 -0.144942785E+01  0.247313521E+01
  Xx  0.257570761E+03  0.503223495E+03 -0.552740713E+03
    11
 # iter = 30750  time[fs]=30.75000
   N -0.159946655E+01 -0.171474317E+01  0.249706825E+01
   N  0.168801757E+01 -0.162572311E+01  0.249888465E+01
   C -0.778560754E+00  0.170623735E+01  0.251003748E+01
   C -0.333291747E+03 -0.651492631E+03 -0.985953556E+03
   C -0.178335295E+01 -0.476421661E+00  0.249391274E+01
   C  0.155481474E+01 -0.428902931E+00  0.249967116E+01
   H -0.583939985E+01  0.103248283E+02  0.238062505E+01
   H  0.627784998E+01  0.100695040E+02  0.418025311E+01
   H -0.115957032E+02 -0.162783158E+01  0.246165349E+01
   H  0.131812290E+02 -0.146746569E+01  0.247230455E+01
  Xx  0.259702607E+03  0.507389400E+03 -0.557348653E+03
    11
 # iter = 31000  time[fs]=31.00000
   N -0.161112521E+01 -0.171510598E+01  0.249669724E+01
   N  0.169901794E+01 -0.163510377E+01  0.249899975E+01
   C -0.781273950E+00  0.170942886E+01  0.251001674E+01
   C -0.336040662E+03 -0.656865140E+03 -0.994089181E+03
   C -0.178404286E+01 -0.488127243E+00  0.249392756E+01
   C  0.155692339E+01 -0.428457466E+00  0.249964681E+01
   H -0.589125469E+01  0.104157130E+02  0.237868212E+01
   H  0.633425491E+01  0.101572361E+02  0.419766436E+01
   H -0.116995423E+02 -0.164833097E+01  0.246111564E+01
   H  0.132970303E+02 -0.148556169E+01  0.247146779E+01
  Xx  0.261834454E+03  0.511555305E+03 -0.561956593E+03
    11
 # iter = 31250  time[fs]=31.25000
   N -0.162280303E+01 -0.171561853E+01  0.249634466E+01
   N  0.171007872E+01 -0.164450341E+01  0.249912068E+01
   C -0.784009921E+00  0.171263321E+01  0.250999164E+01
   C -0.338789578E+03 -0.662237649E+03 -0.100222481E+04
   C -0.178471376E+01 -0.499735926E+00  0.249394371E+01
   C  0.155903042E+01 -0.428051256E+00  0.249964685E+01
   H -0.594321874E+01  0.105067632E+02  0.237672978E+01
   H  0.639077007E+01  0.102451139E+02  0.421510802E+01
   H -0.118035702E+02 -0.166890144E+01  0.246057649E+01
   H  0.134129830E+02 -0.150371464E+01  0.247062530E+01
  Xx  0.263966300E+03  0.515721210E+03 -0.566564533E+03
    11
 # iter = 31500  time[fs]=31.50000
   N -0.163446862E+01 -0.171631031E+01  0.249595790E+01
   N  0.172117260E+01 -0.165389540E+01  0.249926076E+01
   C -0.786734081E+00  0.171584951E+01  0.250994776E+01
   C -0.341538494E+03 -0.667610158E+03 -0.101036043E+04
   C -0.178546645E+01 -0.511167335E+00  0.249400427E+01
   C  0.156115099E+01 -0.427723026E+00  0.249961686E+01
   H -0.599529004E+01  0.105979759E+02  0.237476784E+01
   H  0.644739329E+01  0.103331341E+02  0.423258320E+01
   H -0.119077845E+02 -0.168954111E+01  0.246003579E+01
   H  0.135290839E+02 -0.152192318E+01  0.246977697E+01
  Xx  0.266098146E+03  0.519887115E+03 -0.571172473E+03
    11
 # iter = 31750  time[fs]=31.75000
   N -0.164613415E+01 -0.171724236E+01  0.249561889E+01
   N  0.173229383E+01 -0.166326231E+01  0.249938518E+01
   C -0.789454710E+00  0.171906462E+01  0.250990472E+01
   C -0.344287410E+03 -0.672982667E+03 -0.101849606E+04
   C -0.178629969E+01 -0.522410511E+00  0.249399581E+01
   C  0.156326427E+01 -0.427495851E+00  0.249959970E+01
   H -0.604746871E+01  0.106893503E+02  0.237279592E+01
   H  0.650412444E+01  0.104212961E+02  0.425008975E+01
   H -0.120121808E+02 -0.171025006E+01  0.245949313E+01
   H  0.136453309E+02 -0.154018682E+01  0.246892255E+01
  Xx  0.268229992E+03  0.524053019E+03 -0.575780413E+03
    11
 # iter = 32000  time[fs]=32.00000
   N -0.165781650E+01 -0.171846513E+01  0.249526916E+01
   N  0.174342803E+01 -0.167259692E+01  0.249952440E+01
   C -0.792205588E+00  0.172230748E+01  0.250989215E+01
   C -0.347036325E+03 -0.678355176E+03 -0.102663168E+04
   C -0.178715463E+01 -0.533423722E+00  0.249400797E+01
   C  0.156539094E+01 -0.427377616E+00  0.249958722E+01
   H -0.609975175E+01  0.107808831E+02  0.237081427E+01
   H  0.656096108E+01  0.105095966E+02  0.426762679E+01
   H -0.121167550E+02 -0.173102698E+01  0.245894865E+01
   H  0.137617206E+02 -0.155850426E+01  0.246806215E+01
  Xx  0.270361838E+03  0.528218924E+03 -0.580388353E+03
    11
 # iter = 32250  time[fs]=32.25000
   N -0.166954242E+01 -0.172001522E+01  0.249495563E+01
   N  0.175457120E+01 -0.168186952E+01  0.249964410E+01
   C -0.794999271E+00  0.172558775E+01  0.250986952E+01
   C -0.349785241E+03 -0.683727686E+03 -0.103476731E+04
   C -0.178803952E+01 -0.544125799E+00  0.249398510E+01
   C  0.156750758E+01 -0.427406516E+00  0.249958379E+01
   H -0.615213592E+01  0.108725710E+02  0.236882290E+01
   H  0.661790055E+01  0.105980323E+02  0.428519345E+01
   H -0.122215068E+02 -0.175187011E+01  0.245840236E+01
   H  0.138782509E+02 -0.157687429E+01  0.246719578E+01
  Xx  0.272493684E+03  0.532384829E+03 -0.584996293E+03
    11
 # iter = 32500  time[fs]=32.50000
   N -0.168131919E+01 -0.172193349E+01  0.249460106E+01
   N  0.176566616E+01 -0.169106906E+01  0.249974262E+01
   C -0.797784557E+00  0.172886531E+01  0.250980994E+01
   C -0.352534157E+03 -0.689100195E+03 -0.104290293E+04
   C -0.178897407E+01 -0.554449911E+00  0.249403103E+01
   C  0.156966831E+01 -0.427642033E+00  0.249959237E+01
   H -0.620462142E+01  0.109644137E+02  0.236682194E+01
   H  0.667494247E+01  0.106866011E+02  0.430278950E+01
   H -0.123264317E+02 -0.177277913E+01  0.245785433E+01
   H  0.139949190E+02 -0.159529673E+01  0.246632368E+01
  Xx  0.274625531E+03  0.536550734E+03 -0.589604233E+03
    11
 # iter = 32750  time[fs]=32.75000
   N -0.169309895E+01 -0.172425262E+01  0.249430035E+01
   N  0.177671192E+01 -0.170017293E+01  0.249987133E+01
   C -0.800559139E+00  0.173214034E+01  0.250975552E+01
   C -0.355283073E+03 -0.694472704E+03 -0.105103856E+04
   C -0.179001218E+01 -0.564373689E+00  0.249403714E+01
   C  0.157189040E+01 -0.428119474E+00  0.249959063E+01
   H -0.625720749E+01  0.110564079E+02  0.236481169E+01
   H  0.673208598E+01  0.107753032E+02  0.432041513E+01
   H -0.124315255E+02 -0.179375296E+01  0.245730479E+01
   H  0.141117247E+02 -0.161377109E+01  0.246544616E+01
  Xx  0.276757377E+03  0.540716639E+03 -0.594212173E+03
    11
 # iter = 33000  time[fs]=33.00000
   N -0.170493808E+01 -0.172700328E+01  0.249397576E+01
   N  0.178767591E+01 -0.170917126E+01  0.249999276E+01
   C -0.803341712E+00  0.173544507E+01  0.250972101E+01
   C -0.358031988E+03 -0.699845213E+03 -0.105917418E+04
   C -0.179108149E+01 -0.573870671E+00  0.249406011E+01
   C  0.157416628E+01 -0.428822183E+00  0.249959093E+01
   H -0.630989141E+01  0.111485498E+02  0.236279264E+01
   H  0.678932832E+01  0.108641359E+02  0.433806965E+01
   H -0.125367867E+02 -0.181478976E+01  0.245675394E+01
   H  0.142286659E+02 -0.163229603E+01  0.246456345E+01
  Xx  0.278889223E+03  0.544882543E+03 -0.598820113E+03
    11
 # iter = 33250  time[fs]=33.25000
   N -0.171682354E+01 -0.173021742E+01  0.249369297E+01
   N  0.179853619E+01 -0.171805638E+01  0.250012425E+01
   C -0.806136195E+00  0.173876572E+01  0.250967430E+01
   C -0.360780904E+03 -0.705217722E+03 -0.106730981E+04
   C -0.179216968E+01 -0.582886341E+00  0.249402510E+01
   C  0.157650514E+01 -0.429733604E+00  0.249957565E+01
   H -0.636267092E+01  0.112408382E+02  0.236076478E+01
   H  0.684666807E+01  0.109530969E+02  0.435575304E+01
   H -0.126422131E+02 -0.183588848E+01  0.245620160E+01
   H  0.143457401E+02 -0.165087048E+01  0.246367548E+01
  Xx  0.281021069E+03  0.549048448E+03 -0.603428053E+03
    11
 # iter = 33500  time[fs]=33.50000
   N -0.172873028E+01 -0.173393681E+01  0.249337830E+01
   N  0.180934812E+01 -0.172678300E+01  0.250025607E+01
   C -0.808944740E+00  0.174210139E+01  0.250962590E+01
   C -0.363529820E+03 -0.710590231E+03 -0.107544543E+04
   C -0.179325459E+01 -0.591387021E+00  0.249406375E+01
   C  0.157884855E+01 -0.430891828E+00  0.249957919E+01
   H -0.641554582E+01  0.113332726E+02  0.235872837E+01
   H  0.690410403E+01  0.110421838E+02  0.437346522E+01
   H -0.127478011E+02 -0.185704891E+01  0.245564799E+01
   H  0.144629445E+02 -0.166949411E+01  0.246278267E+01
  Xx  0.283152915E+03  0.553214353E+03 -0.608035993E+03
    11
 # iter = 33750  time[fs]=33.75000
   N -0.174063573E+01 -0.173817924E+01  0.249310523E+01
   N  0.182006180E+01 -0.173532552E+01  0.250035368E+01
   C -0.811764855E+00  0.174546316E+01  0.250958148E+01
   C -0.366278736E+03 -0.715962741E+03 -0.108358106E+04
   C -0.179436708E+01 -0.599352845E+00  0.249406278E+01
   C  0.158125083E+01 -0.432324962E+00  0.249959502E+01
   H -0.646851458E+01  0.114258498E+02  0.235668334E+01
   H  0.696163450E+01  0.111313944E+02  0.439120530E+01
   H -0.128535490E+02 -0.187827022E+01  0.245509267E+01
   H  0.145802770E+02 -0.168816611E+01  0.246188481E+01
  Xx  0.285284761E+03  0.557380258E+03 -0.612643932E+03
    11
 # iter = 34000  time[fs]=34.00000
   N -0.175253915E+01 -0.174294822E+01  0.249279661E+01
   N  0.183069768E+01 -0.174367471E+01  0.250047391E+01
   C -0.814545987E+00  0.174881937E+01  0.250951585E+01
   C -0.369027651E+03 -0.721335250E+03 -0.109171668E+04
   C -0.179552068E+01 -0.606741464E+00  0.249410122E+01
   C  0.158369751E+01 -0.434062221E+00  0.249958801E+01
   H -0.652157517E+01  0.115185678E+02  0.235462985E+01
   H  0.701925765E+01  0.112207252E+02  0.440897253E+01
   H -0.129594560E+02 -0.189955152E+01  0.245453569E+01
   H  0.146977342E+02 -0.170688552E+01  0.246098201E+01
  Xx  0.287416608E+03  0.561546162E+03 -0.617251872E+03
    11
 # iter = 34250  time[fs]=34.25000
   N -0.176443005E+01 -0.174825372E+01  0.249252181E+01
   N  0.184124892E+01 -0.175181429E+01  0.250058850E+01
   C -0.817308659E+00  0.175220286E+01  0.250945376E+01
   C -0.371776567E+03 -0.726707759E+03 -0.109985231E+04
   C -0.179667245E+01 -0.613529469E+00  0.249411706E+01
   C  0.158622229E+01 -0.436076727E+00  0.249960989E+01
   H -0.657472528E+01  0.116114236E+02  0.235256801E+01
   H  0.707697193E+01  0.113101759E+02  0.442676642E+01
   H -0.130655186E+02 -0.192089167E+01  0.245397714E+01
   H  0.148153157E+02 -0.172565131E+01  0.246007468E+01
  Xx  0.289548454E+03  0.565712067E+03 -0.621859812E+03
    11
 # iter = 34500  time[fs]=34.50000
   N -0.177626248E+01 -0.175408254E+01  0.249223209E+01
   N  0.185166879E+01 -0.175974351E+01  0.250070974E+01
   C -0.820081355E+00  0.175560107E+01  0.250941242E+01
   C -0.374525483E+03 -0.732080268E+03 -0.110798794E+04
   C -0.179785526E+01 -0.619765056E+00  0.249416638E+01
   C  0.158883605E+01 -0.438351089E+00  0.249959865E+01
   H -0.662796520E+01  0.117044165E+02  0.235049821E+01
   H  0.713477679E+01  0.113997450E+02  0.444458695E+01
   H -0.131717328E+02 -0.194229021E+01  0.245341729E+01
   H  0.149330195E+02 -0.174446306E+01  0.245916290E+01
  Xx  0.291680300E+03  0.569877972E+03 -0.626467752E+03
    11
 # iter = 34750  time[fs]=34.75000
   N -0.178808872E+01 -0.176042625E+01  0.249196656E+01
   N  0.186200781E+01 -0.176742258E+01  0.250085041E+01
   C -0.822857407E+00  0.175899919E+01  0.250937476E+01
   C -0.377274398E+03 -0.737452777E+03 -0.111612356E+04
   C -0.179900016E+01 -0.625448945E+00  0.249416939E+01
   C  0.159152856E+01 -0.440913998E+00  0.249957430E+01
   H -0.668129321E+01  0.117975447E+02  0.234842028E+01
   H  0.719267092E+01  0.114894294E+02  0.446243412E+01
   H -0.132780981E+02 -0.196374643E+01  0.245285639E+01
   H  0.150508432E+02 -0.176332018E+01  0.245824669E+01
  Xx  0.293812146E+03  0.574043877E+03 -0.631075692E+03
    11
 # iter = 35000  time[fs]=35.00000
   N -0.179982963E+01 -0.176727594E+01  0.249170466E+01
   N  0.187228631E+01 -0.177482035E+01  0.250096700E+01
   C -0.825628212E+00  0.176243568E+01  0.250932430E+01
   C -0.380023314E+03 -0.742825286E+03 -0.112425919E+04
   C -0.180016479E+01 -0.630531952E+00  0.249418923E+01
   C  0.159429403E+01 -0.443810088E+00  0.249957941E+01
   H -0.673470666E+01  0.118908063E+02  0.234633422E+01
   H  0.725065214E+01  0.115792262E+02  0.448030723E+01
   H -0.133846138E+02 -0.198525879E+01  0.245229442E+01
   H  0.151687840E+02 -0.178222190E+01  0.245732603E+01
  Xx  0.295943992E+03  0.578209782E+03 -0.635683632E+03
    11
 # iter = 35250  time[fs]=35.25000
   N -0.181153701E+01 -0.177459826E+01  0.249145968E+01
   N  0.188251380E+01 -0.178191563E+01  0.250109289E+01
   C -0.828379011E+00  0.176588923E+01  0.250928151E+01
   C -0.382772230E+03 -0.748197796E+03 -0.113239481E+04
   C -0.180129017E+01 -0.635047813E+00  0.249421422E+01
   C  0.159712721E+01 -0.447069318E+00  0.249955744E+01
   H -0.678820471E+01  0.119841982E+02  0.234424002E+01
   H  0.730871997E+01  0.116691341E+02  0.449820559E+01
   H -0.134912759E+02 -0.200682665E+01  0.245173134E+01
   H  0.152868402E+02 -0.180116772E+01  0.245640094E+01
  Xx  0.298075838E+03  0.582375686E+03 -0.640291572E+03
    11
 # iter = 35500  time[fs]=35.50000
   N -0.182316818E+01 -0.178234037E+01  0.249122203E+01
   N  0.189273383E+01 -0.178869417E+01  0.250121314E+01
   C -0.831108091E+00  0.176932590E+01  0.250923662E+01
   C -0.385521146E+03 -0.753570305E+03 -0.114053044E+04
   C -0.180244977E+01 -0.639079462E+00  0.249422643E+01
   C  0.160003112E+01 -0.450670073E+00  0.249956214E+01
   H -0.684178700E+01  0.120777183E+02  0.234213788E+01
   H  0.736687384E+01  0.117591529E+02  0.451612929E+01
   H -0.135980805E+02 -0.202844945E+01  0.245116716E+01
   H  0.154050119E+02 -0.182015734E+01  0.245547140E+01
  Xx  0.300207685E+03  0.586541591E+03 -0.644899512E+03
    11
 # iter = 35750  time[fs]=35.75000
   N -0.183477155E+01 -0.179048997E+01  0.249099999E+01
   N  0.190288917E+01 -0.179516031E+01  0.250134055E+01
   C -0.833847601E+00  0.177280022E+01  0.250919470E+01
   C -0.388270061E+03 -0.758942814E+03 -0.114866606E+04
   C -0.180356568E+01 -0.642620401E+00  0.249421207E+01
   C  0.160303461E+01 -0.454597494E+00  0.249955185E+01
   H -0.689545180E+01  0.121713635E+02  0.234002803E+01
   H  0.742511078E+01  0.118492821E+02  0.453407751E+01
   H -0.137050258E+02 -0.205012562E+01  0.245060189E+01
   H  0.155232984E+02 -0.183918970E+01  0.245453742E+01
  Xx  0.302339531E+03  0.590707496E+03 -0.649507452E+03
    11
 # iter = 36000  time[fs]=36.00000
   N -0.184631626E+01 -0.179902476E+01  0.249080037E+01
   N  0.191301577E+01 -0.180130067E+01  0.250147381E+01
   C -0.836601846E+00  0.177630485E+01  0.250917220E+01
   C -0.391018977E+03 -0.764315323E+03 -0.115680169E+04
   C -0.180465931E+01 -0.645661694E+00  0.249419632E+01
   C  0.160614426E+01 -0.458877247E+00  0.249952557E+01
   H -0.694919721E+01  0.122651329E+02  0.233791086E+01
   H  0.748342987E+01  0.119395182E+02  0.455205016E+01
   H -0.138121101E+02 -0.207185422E+01  0.245003552E+01
   H  0.156416964E+02 -0.185826426E+01  0.245359900E+01
  Xx  0.304471377E+03  0.594873401E+03 -0.654115392E+03
    11
 # iter = 36250  time[fs]=36.25000
   N -0.185786160E+01 -0.180790155E+01  0.249058834E+01
   N  0.192312975E+01 -0.180709420E+01  0.250158348E+01
   C -0.839342578E+00  0.177979526E+01  0.250913609E+01
   C -0.393767893E+03 -0.769687832E+03 -0.116493731E+04
   C -0.180570604E+01 -0.648279741E+00  0.249421530E+01
   C  0.160936708E+01 -0.463545711E+00  0.249954568E+01
   H -0.700302393E+01  0.123590266E+02  0.233578634E+01
   H  0.754183111E+01  0.120298609E+02  0.457004723E+01
   H -0.139193319E+02 -0.209363590E+01  0.244946811E+01
   H  0.157602039E+02 -0.187738085E+01  0.245265635E+01
  Xx  0.306603223E+03  0.599039306E+03 -0.658723332E+03
    11
 # iter = 36500  time[fs]=36.50000
   N -0.186935503E+01 -0.181707556E+01  0.249038411E+01
   N  0.193323374E+01 -0.181253199E+01  0.250169943E+01
   C -0.842064147E+00  0.178330698E+01  0.250907272E+01
   C -0.396516809E+03 -0.775060341E+03 -0.117307294E+04
   C -0.180679612E+01 -0.650531399E+00  0.249423188E+01
   C  0.161267985E+01 -0.468615699E+00  0.249952955E+01
   H -0.705693067E+01  0.124530414E+02  0.233365436E+01
   H  0.760031418E+01  0.121203098E+02  0.458806873E+01
   H -0.140266878E+02 -0.211546985E+01  0.244889949E+01
   H  0.158788182E+02 -0.189653897E+01  0.245170933E+01
  Xx  0.308735069E+03  0.603205210E+03 -0.663331272E+03
    11
 # iter = 36750  time[fs]=36.75000
   N -0.188088788E+01 -0.182652949E+01  0.249019417E+01
   N  0.194336179E+01 -0.181761324E+01  0.250180937E+01
   C -0.844767830E+00  0.178682239E+01  0.250901291E+01
   C -0.399265724E+03 -0.780432850E+03 -0.118120856E+04
   C -0.180781708E+01 -0.652424330E+00  0.249426700E+01
   C  0.161606634E+01 -0.474042071E+00  0.249951667E+01
   H -0.711091583E+01  0.125471753E+02  0.233151523E+01
   H  0.765887644E+01  0.122108615E+02  0.460611381E+01
   H -0.141341764E+02 -0.213735477E+01  0.244832976E+01
   H  0.159975390E+02 -0.191573745E+01  0.245075787E+01
  Xx  0.310866916E+03  0.607371115E+03 -0.667939212E+03
    11
 # iter = 37000  time[fs]=37.00000
   N -0.189242070E+01 -0.183622612E+01  0.249002114E+01
   N  0.195346595E+01 -0.182235180E+01  0.250192770E+01
   C -0.847468483E+00  0.179033199E+01  0.250897801E+01
   C -0.402014640E+03 -0.785805360E+03 -0.118934419E+04
   C -0.180884356E+01 -0.653983474E+00  0.249428754E+01
   C  0.161957693E+01 -0.479820392E+00  0.249951314E+01
   H -0.716497871E+01  0.126414260E+02  0.232936896E+01
   H  0.771751643E+01  0.123015153E+02  0.462418164E+01
   H -0.142417944E+02 -0.215928963E+01  0.244775905E+01
   H  0.161163664E+02 -0.193497565E+01  0.244980213E+01
  Xx  0.312998762E+03  0.611537020E+03 -0.672547152E+03
    11
 # iter = 37250  time[fs]=37.25000
   N -0.190402980E+01 -0.184612174E+01  0.248983680E+01
   N  0.196355058E+01 -0.182673246E+01  0.250203662E+01
   C -0.850177990E+00  0.179386050E+01  0.250892802E+01
   C -0.404763556E+03 -0.791177869E+03 -0.119747981E+04
   C -0.180978830E+01 -0.655320569E+00  0.249432095E+01
   C  0.162319118E+01 -0.486011179E+00  0.249948551E+01
   H -0.721911929E+01  0.127357926E+02  0.232721541E+01
   H  0.777623412E+01  0.123922712E+02  0.464227237E+01
   H -0.143495408E+02 -0.218127480E+01  0.244718705E+01
   H  0.162352988E+02 -0.195425379E+01  0.244884220E+01
  Xx  0.315130608E+03  0.615702925E+03 -0.677155092E+03
    11
 # iter = 37500  time[fs]=37.50000
   N -0.191565243E+01 -0.185620143E+01  0.248968459E+01
   N  0.197360337E+01 -0.183074474E+01  0.250213048E+01
   C -0.852897144E+00  0.179739776E+01  0.250887856E+01
   C -0.407512472E+03 -0.796550378E+03 -0.120561544E+04
   C -0.181074528E+01 -0.656462250E+00  0.249434034E+01
   C  0.162695177E+01 -0.492635297E+00  0.249947952E+01
   H -0.727333626E+01  0.128302746E+02  0.232505468E+01
   H  0.783502904E+01  0.124831274E+02  0.466038609E+01
   H -0.144574123E+02 -0.220330949E+01  0.244661388E+01
   H  0.163543297E+02 -0.197357139E+01  0.244787825E+01
  Xx  0.317262454E+03  0.619868830E+03 -0.681763032E+03
    11
 # iter = 37750  time[fs]=37.75000
   N -0.192736562E+01 -0.186644280E+01  0.248952413E+01
   N  0.198361420E+01 -0.183440935E+01  0.250223191E+01
   C -0.855632934E+00  0.180092488E+01  0.250884362E+01
   C -0.410261387E+03 -0.801922887E+03 -0.121375106E+04
   C -0.181162095E+01 -0.657424325E+00  0.249438221E+01
   C  0.163082376E+01 -0.499646722E+00  0.249946746E+01
   H -0.732762732E+01  0.129248693E+02  0.232288690E+01
   H  0.789389908E+01  0.125740813E+02  0.467852202E+01
   H -0.145654081E+02 -0.222539243E+01  0.244603942E+01
   H  0.164734583E+02 -0.199292735E+01  0.244691020E+01
  Xx  0.319394300E+03  0.624034734E+03 -0.686370972E+03
    11
 # iter = 38000  time[fs]=38.00000
   N -0.193910044E+01 -0.187682646E+01  0.248936182E+01
   N  0.199358782E+01 -0.183773529E+01  0.250233227E+01
   C -0.858329794E+00  0.180444556E+01  0.250878290E+01
   C -0.413010303E+03 -0.807295396E+03 -0.122188669E+04
   C -0.181254272E+01 -0.658261903E+00  0.249442853E+01
   C  0.163479045E+01 -0.507015823E+00  0.249944052E+01
   H -0.738199162E+01  0.130195751E+02  0.232071192E+01
   H  0.795284252E+01  0.126651328E+02  0.469668016E+01
   H -0.146735272E+02 -0.224752304E+01  0.244546386E+01
   H  0.165926846E+02 -0.201232108E+01  0.244593775E+01
  Xx  0.321526146E+03  0.628200639E+03 -0.690978912E+03
    11
 # iter = 38250  time[fs]=38.25000
   N -0.195093028E+01 -0.188730211E+01  0.248920731E+01
   N  0.200349475E+01 -0.184072407E+01  0.250243024E+01
   C -0.861035494E+00  0.180799833E+01  0.250871489E+01
   C -0.415759219E+03 -0.812667905E+03 -0.123002231E+04
   C -0.181339758E+01 -0.659076498E+00  0.249448776E+01
   C  0.163889225E+01 -0.514770909E+00  0.249942531E+01
   H -0.743642807E+01  0.131143919E+02  0.231853004E+01
   H  0.801185927E+01  0.127562793E+02  0.471486050E+01
   H -0.147817664E+02 -0.226970074E+01  0.244488718E+01
   H  0.167120086E+02 -0.203175244E+01  0.244496123E+01
  Xx  0.323657993E+03  0.632366544E+03 -0.695586852E+03
    11
 # iter = 38500  time[fs]=38.50000
   N -0.196277218E+01 -0.189787504E+01  0.248906041E+01
   N  0.201331624E+01 -0.184338617E+01  0.250253636E+01
   C -0.863766121E+00  0.181152892E+01  0.250867777E+01
   C -0.418508135E+03 -0.818040415E+03 -0.123815794E+04
   C -0.181429560E+01 -0.659875599E+00  0.249454289E+01
   C  0.164311115E+01 -0.522938557E+00  0.249938830E+01
   H -0.749093628E+01  0.132093173E+02  0.231634131E+01
   H  0.807094843E+01  0.128475194E+02  0.473306275E+01
   H -0.148901255E+02 -0.229192501E+01  0.244430945E+01
   H  0.168314302E+02 -0.205122111E+01  0.244398073E+01
  Xx  0.325789839E+03  0.636532449E+03 -0.700194792E+03
    11
 # iter = 38750  time[fs]=38.75000
   N -0.197469664E+01 -0.190852813E+01  0.248893185E+01
   N  0.202305170E+01 -0.184573847E+01  0.250259682E+01
   C -0.866484668E+00  0.181505169E+01  0.250863757E+01
   C -0.421257050E+03 -0.823412924E+03 -0.124629357E+04
   C -0.181514806E+01 -0.660661309E+00  0.249456443E+01
   C  0.164746863E+01 -0.531482436E+00  0.249938649E+01
   H -0.754551417E+01  0.133043494E+02  0.231414593E+01
   H  0.813010865E+01  0.129388527E+02  0.475128525E+01
   H -0.149986038E+02 -0.231419478E+01  0.244373063E+01
   H  0.169509496E+02 -0.207072618E+01  0.244299624E+01
  Xx  0.327921685E+03  0.640698353E+03 -0.704802732E+03
    11
 # iter = 39000  time[fs]=39.00000
   N -0.198662570E+01 -0.191924996E+01  0.248880699E+01
   N  0.203268227E+01 -0.184778848E+01  0.250269009E+01
   C -0.869225204E+00  0.181859633E+01  0.250857891E+01
   C -0.424005966E+03 -0.828785433E+03 -0.125442919E+04
   C -0.181602610E+01 -0.661486900E+00  0.249460845E+01
   C  0.165195171E+01 -0.540348657E+00  0.249936542E+01
   H -0.760016093E+01  0.133994879E+02  0.231194388E+01
   H  0.818933992E+01  0.130302760E+02  0.476952774E+01
   H -0.151071981E+02 -0.233650948E+01  0.244315069E+01
   H  0.170705622E+02 -0.209026684E+01  0.244200829E+01
  Xx  0.330053531E+03  0.644864258E+03 -0.709410672E+03
    11
 # iter = 39250  time[fs]=39.25000
   N -0.199857917E+01 -0.193001070E+01  0.248871814E+01
   N  0.204221376E+01 -0.184954054E+01  0.250278839E+01
   C -0.871962559E+00  0.182212665E+01  0.250853399E+01
   C -0.426754882E+03 -0.834157942E+03 -0.126256482E+04
   C -0.181690144E+01 -0.662423676E+00  0.249463005E+01
   C  0.165651990E+01 -0.549576507E+00  0.249931621E+01
   H -0.765487648E+01  0.134947311E+02  0.230973517E+01
   H  0.824864223E+01  0.131217881E+02  0.478779021E+01
   H -0.152159078E+02 -0.235886912E+01  0.244256964E+01
   H  0.171902636E+02 -0.210984302E+01  0.244101665E+01
  Xx  0.332185377E+03  0.649030163E+03 -0.714018612E+03
    11
 # iter = 39500  time[fs]=39.50000
   N -0.201054713E+01 -0.194079982E+01  0.248861515E+01
   N  0.205162865E+01 -0.185099351E+01  0.250285592E+01
   C -0.874680385E+00  0.182565673E+01  0.250847275E+01
   C -0.429503798E+03 -0.839530451E+03 -0.127070044E+04
   C -0.181777413E+01 -0.663486319E+00  0.249466720E+01
   C  0.166121922E+01 -0.559173306E+00  0.249930395E+01
   H -0.770965964E+01  0.135900765E+02  0.230752001E+01
   H  0.830801314E+01  0.132133890E+02  0.480607266E+01
   H -0.153247308E+02 -0.238127308E+01  0.244198760E+01
   H  0.173100538E+02 -0.212945444E+01  0.244002168E+01
  Xx  0.334317223E+03  0.653196068E+03 -0.718626551E+03
    11
 # iter = 39750  time[fs]=39.75000
   N -0.202246178E+01 -0.195160981E+01  0.248856632E+01
   N  0.206092659E+01 -0.185216577E+01  0.250294084E+01
   C -0.877415861E+00  0.182919986E+01  0.250839547E+01
   C -0.432252713E+03 -0.844902960E+03 -0.127883607E+04
   C -0.181868230E+01 -0.664633072E+00  0.249466693E+01
   C  0.166604075E+01 -0.569129663E+00  0.249927814E+01
   H -0.776450850E+01  0.136855223E+02  0.230529865E+01
   H  0.836745066E+01  0.133050773E+02  0.482437510E+01
   H -0.154336649E+02 -0.240372011E+01  0.244140473E+01
   H  0.174299328E+02 -0.214910031E+01  0.243902338E+01
  Xx  0.336449070E+03  0.657361973E+03 -0.723234491E+03
    11
 # iter = 40000  time[fs]=40.00000
   N -0.203436643E+01 -0.196239630E+01  0.248851244E+01
   N  0.207009210E+01 -0.185308065E+01  0.250298512E+01
   C -0.880166041E+00  0.183271383E+01  0.250836383E+01
   C -0.435001629E+03 -0.850275469E+03 -0.128697169E+04
   C -0.181957382E+01 -0.665931008E+00  0.249466969E+01
   C  0.167098142E+01 -0.579401077E+00  0.249926990E+01
   H -0.781942227E+01  0.137810664E+02  0.230307131E+01
   H  0.842695480E+01  0.133968501E+02  0.484269752E+01
   H -0.155427087E+02 -0.242620960E+01  0.244082074E+01
   H  0.175499007E+02 -0.216878042E+01  0.243802175E+01
  Xx  0.338580916E+03  0.661527877E+03 -0.727842431E+03
    11
 # iter = 40250  time[fs]=40.25000
   N -0.204617542E+01 -0.197313703E+01  0.248848473E+01
   N  0.207913496E+01 -0.185374697E+01  0.250303966E+01
   C -0.882919547E+00  0.183623513E+01  0.250832279E+01
   C -0.437750545E+03 -0.855647979E+03 -0.129510732E+04
   C -0.182053802E+01 -0.667440660E+00  0.249464954E+01
   C  0.167604865E+01 -0.589946981E+00  0.249925294E+01
   H -0.787440043E+01  0.138767082E+02  0.230083769E+01
   H  0.848652551E+01  0.134887073E+02  0.486103993E+01
   H -0.156518591E+02 -0.244874118E+01  0.244023565E+01
   H  0.176699573E+02 -0.218849395E+01  0.243701679E+01
  Xx  0.340712762E+03  0.665693782E+03 -0.732450371E+03
    11
 # iter = 40500  time[fs]=40.50000
   N -0.205792045E+01 -0.198378034E+01  0.248846856E+01
   N  0.208808135E+01 -0.185418082E+01  0.250311450E+01
   C -0.885690287E+00  0.183978537E+01  0.250825862E+01
   C -0.440499461E+03 -0.861020488E+03 -0.130324294E+04
   C -0.182151135E+01 -0.669178497E+00  0.249464211E+01
   C  0.168119920E+01 -0.600788823E+00  0.249922095E+01
   H -0.792944179E+01  0.139724464E+02  0.229859802E+01
   H  0.854616010E+01  0.135806488E+02  0.487940232E+01
   H -0.157611162E+02 -0.247131400E+01  0.243964944E+01
   H  0.177901028E+02 -0.220824065E+01  0.243600850E+01
  Xx  0.342844608E+03  0.669859687E+03 -0.737058311E+03
    11
 # iter = 40750  time[fs]=40.75000
   N -0.206959584E+01 -0.199431647E+01  0.248846098E+01
   N  0.209692434E+01 -0.185439035E+01  0.250315606E+01
   C -0.888462285E+00  0.184330023E+01  0.250821400E+01
   C -0.443248376E+03 -0.866392997E+03 -0.131137857E+04
   C -0.182250327E+01 -0.671115344E+00  0.249463241E+01
   C  0.168646296E+01 -0.611914506E+00  0.249920003E+01
   H -0.798454532E+01  0.140682780E+02  0.229635274E+01
   H  0.860585687E+01  0.136726744E+02  0.489778437E+01
   H -0.158704796E+02 -0.249392755E+01  0.243906212E+01
   H  0.179103367E+02 -0.222801990E+01  0.243499687E+01
  Xx  0.344976454E+03  0.674025592E+03 -0.741666251E+03
    11
 # iter = 41000  time[fs]=41.00000
   N -0.208114670E+01 -0.200474345E+01  0.248848487E+01
   N  0.210570017E+01 -0.185438535E+01  0.250321677E+01
   C -0.891237084E+00  0.184681098E+01  0.250815093E+01
   C -0.445997292E+03 -0.871765506E+03 -0.131951419E+04
   C -0.182357972E+01 -0.673242862E+00  0.249459868E+01
   C  0.169183245E+01 -0.623312316E+00  0.249916041E+01
   H -0.803971102E+01  0.141642029E+02  0.229410139E+01
   H  0.866561580E+01  0.137647809E+02  0.491618466E+01
   H -0.159799463E+02 -0.251658108E+01  0.243847378E+01
   H  0.180306527E+02 -0.224783134E+01  0.243398192E+01
  Xx  0.347108300E+03  0.678191497E+03 -0.746274191E+03
    11
 # iter = 41250  time[fs]=41.25000
   N -0.209265218E+01 -0.201501770E+01  0.248851571E+01
   N  0.211436823E+01 -0.185419832E+01  0.250323920E+01
   C -0.894017465E+00  0.185033318E+01  0.250807635E+01
   C -0.448746208E+03 -0.877138015E+03 -0.132764982E+04
   C -0.182466071E+01 -0.675609499E+00  0.249457948E+01
   C  0.169731388E+01 -0.634948525E+00  0.249915675E+01
   H -0.809493890E+01  0.142602210E+02  0.229184411E+01
   H  0.872543691E+01  0.138569673E+02  0.493460303E+01
   H -0.160895137E+02 -0.253927459E+01  0.243788452E+01
   H  0.181510486E+02 -0.226767488E+01  0.243296364E+01
  Xx  0.349240147E+03  0.682357401E+03 -0.750882131E+03
    11
 # iter = 41500  time[fs]=41.50000
   N -0.210403296E+01 -0.202512701E+01  0.248855919E+01
   N  0.212295913E+01 -0.185384212E+01  0.250327527E+01
   C -0.896815976E+00  0.185382454E+01  0.250804095E+01
   C -0.451495124E+03 -0.882510524E+03 -0.133578544E+04
   C -0.182582865E+01 -0.678216028E+00  0.249454212E+01
   C  0.170290873E+01 -0.646784744E+00  0.249911146E+01
   H -0.815022812E+01  0.143563314E+02  0.228958090E+01
   H  0.878532019E+01  0.139492336E+02  0.495303916E+01
   H -0.161991788E+02 -0.256200771E+01  0.243729415E+01
   H  0.182715245E+02 -0.228754971E+01  0.243194202E+01
  Xx  0.351371993E+03  0.686523306E+03 -0.755490071E+03
    11
 # iter = 41750  time[fs]=41.75000
   N -0.211534977E+01 -0.203503944E+01  0.248861999E+01
   N  0.213149632E+01 -0.185333512E+01  0.250331381E+01
   C -0.899628532E+00  0.185733690E+01  0.250800259E+01
   C -0.454244039E+03 -0.887883034E+03 -0.134392107E+04
   C -0.182703104E+01 -0.681075722E+00  0.249450373E+01
   C  0.170859957E+01 -0.658821607E+00  0.249908530E+01
   H -0.820557542E+01  0.144525308E+02  0.228731185E+01
   H  0.884526514E+01  0.140415798E+02  0.497149306E+01
   H -0.163089416E+02 -0.258477972E+01  0.243670266E+01
   H  0.183920802E+02 -0.230745562E+01  0.243091708E+01
  Xx  0.353503839E+03  0.690689211E+03 -0.760098011E+03
    11
 # iter = 42000  time[fs]=42.00000
   N -0.212663740E+01 -0.204473103E+01  0.248869185E+01
   N  0.213998478E+01 -0.185269267E+01  0.250335327E+01
   C -0.902447223E+00  0.186087176E+01  0.250794833E+01
   C -0.456992955E+03 -0.893255543E+03 -0.135205669E+04
   C -0.182825241E+01 -0.684203056E+00  0.249446510E+01
   C  0.171438653E+01 -0.671050628E+00  0.249904531E+01
   H -0.826098045E+01  0.145488190E+02  0.228503711E+01
   H  0.890526841E+01  0.141340047E+02  0.498996472E+01
   H -0.164188021E+02 -0.260759057E+01  0.243611007E+01
   H  0.185127160E+02 -0.232739261E+01  0.242988880E+01
  Xx  0.355635685E+03  0.694855116E+03 -0.764705951E+03
    11
 # iter = 42250  time[fs]=42.25000
   N -0.213783417E+01 -0.205420008E+01  0.248878846E+01
   N  0.214848784E+01 -0.185191883E+01  0.250338772E+01
   C -0.905279035E+00  0.186437251E+01  0.250790046E+01
   C -0.459741871E+03 -0.898628052E+03 -0.136019232E+04
   C -0.182956895E+01 -0.687595865E+00  0.249440503E+01
   C  0.172023404E+01 -0.683457440E+00  0.249899029E+01
   H -0.831644321E+01  0.146451961E+02  0.228275682E+01
   H  0.896532941E+01  0.142265062E+02  0.500845415E+01
   H -0.165287603E+02 -0.263043973E+01  0.243551637E+01
   H  0.186334316E+02 -0.234736023E+01  0.242885720E+01
  Xx  0.357767531E+03  0.699021021E+03 -0.769313891E+03
    11
 # iter = 42500  time[fs]=42.50000
   N -0.214902780E+01 -0.206343221E+01  0.248888188E+01
   N  0.215699372E+01 -0.185106543E+01  0.250341447E+01
   C -0.908118762E+00  0.186788123E+01  0.250783511E+01
   C -0.462490787E+03 -0.904000561E+03 -0.136832794E+04
   C -0.183093550E+01 -0.691265586E+00  0.249437380E+01
   C  0.172614675E+01 -0.695988106E+00  0.249896670E+01
   H -0.837196370E+01  0.147416607E+02  0.228047098E+01
   H  0.902544815E+01  0.143190832E+02  0.502696134E+01
   H -0.166388163E+02 -0.265332670E+01  0.243492156E+01
   H  0.187542272E+02 -0.236735783E+01  0.242782226E+01
  Xx  0.359899377E+03  0.703186925E+03 -0.773921831E+03
    11
 # iter = 42750  time[fs]=42.75000
   N -0.216022366E+01 -0.207243296E+01  0.248898003E+01
   N  0.216555332E+01 -0.185017094E+01  0.250344090E+01
   C -0.910958188E+00  0.187140167E+01  0.250775870E+01
   C -0.465239702E+03 -0.909373070E+03 -0.137646357E+04
   C -0.183235515E+01 -0.695190685E+00  0.249434452E+01
   C  0.173207557E+01 -0.708580509E+00  0.249892060E+01
   H -0.842754193E+01  0.148382107E+02  0.227817959E+01
   H  0.908562462E+01  0.144117357E+02  0.504548629E+01
   H -0.167489697E+02 -0.267625049E+01  0.243432563E+01
   H  0.188751027E+02 -0.238738499E+01  0.242678399E+01
  Xx  0.362031224E+03  0.707352830E+03 -0.778529771E+03
    11
 # iter = 43000  time[fs]=43.00000
   N -0.217136484E+01 -0.208120881E+01  0.248909761E+01
   N  0.217417668E+01 -0.184926851E+01  0.250342430E+01
   C -0.913809301E+00  0.187489289E+01  0.250770702E+01
   C -0.467988618E+03 -0.914745579E+03 -0.138459920E+04
   C -0.183386020E+01 -0.699366594E+00  0.249429067E+01
   C  0.173802094E+01 -0.721174191E+00  0.249891147E+01
   H -0.848317647E+01  0.149348450E+02  0.227588264E+01
   H  0.914585882E+01  0.145044628E+02  0.506402901E+01
   H -0.168592148E+02 -0.269921055E+01  0.243372860E+01
   H  0.189960544E+02 -0.240744104E+01  0.242574239E+01
  Xx  0.364163070E+03  0.711518735E+03 -0.783137711E+03
    11
 # iter = 43250  time[fs]=43.25000
   N -0.218255338E+01 -0.208972669E+01  0.248923896E+01
   N  0.218286721E+01 -0.184838658E+01  0.250344068E+01
   C -0.916681132E+00  0.187840100E+01  0.250765519E+01
   C -0.470737534E+03 -0.920118088E+03 -0.139273482E+04
   C -0.183540690E+01 -0.703849265E+00  0.249422288E+01
   C  0.174397266E+01 -0.733759354E+00  0.249887641E+01
   H -0.853886438E+01  0.150315638E+02  0.227358015E+01
   H  0.920615071E+01  0.145972627E+02  0.508258948E+01
   H -0.169695488E+02 -0.272220656E+01  0.243313046E+01
   H  0.191170772E+02 -0.242752594E+01  0.242469746E+01
  Xx  0.366294916E+03  0.715684640E+03 -0.787745651E+03
    11
 # iter = 43500  time[fs]=43.50000
   N -0.219373331E+01 -0.209799483E+01  0.248939440E+01
   N  0.219164053E+01 -0.184755706E+01  0.250342299E+01
   C -0.919555299E+00  0.188192696E+01  0.250759778E+01
   C -0.473486450E+03 -0.925490598E+03 -0.140087045E+04
   C -0.183701563E+01 -0.708627761E+00  0.249412752E+01
   C  0.174992444E+01 -0.746313132E+00  0.249887619E+01
   H -0.859460559E+01  0.151283652E+02  0.227127210E+01
   H  0.926649751E+01  0.146901338E+02  0.510116682E+01
   H -0.170799716E+02 -0.274523834E+01  0.243253122E+01
   H  0.192381710E+02 -0.244763957E+01  0.242364920E+01
  Xx  0.368426762E+03  0.719850544E+03 -0.792353591E+03
    11
 # iter = 43750  time[fs]=43.75000
   N -0.220487945E+01 -0.210604273E+01  0.248956563E+01
   N  0.220051768E+01 -0.184682438E+01  0.250343389E+01
   C -0.922444546E+00  0.188543441E+01  0.250754897E+01
   C -0.476235365E+03 -0.930863107E+03 -0.140900607E+04
   C -0.183872624E+01 -0.713675384E+00  0.249404262E+01
   C  0.175585895E+01 -0.758765116E+00  0.249882363E+01
   H -0.865040008E+01  0.152252466E+02  0.226895850E+01
   H  0.932689760E+01  0.147830760E+02  0.511976060E+01
   H -0.171904831E+02 -0.276830542E+01  0.243193098E+01
   H  0.193593358E+02 -0.246778108E+01  0.242259761E+01
  Xx  0.370558608E+03  0.724016449E+03 -0.796961531E+03
    11
 # iter = 44000  time[fs]=44.00000
   N -0.221605657E+01 -0.211385937E+01  0.248974650E+01
   N  0.220953257E+01 -0.184624845E+01  0.250342730E+01
   C -0.925344131E+00  0.188895634E+01  0.250748609E+01
   C -0.478984281E+03 -0.936235616E+03 -0.141714170E+04
   C -0.184047368E+01 -0.718982530E+00  0.249398035E+01
   C  0.176170727E+01 -0.771029851E+00  0.249881509E+01
   H -0.870624787E+01  0.153222079E+02  0.226663985E+01
   H  0.938735099E+01  0.148760892E+02  0.513837017E+01
   H -0.173010835E+02 -0.279140698E+01  0.243133010E+01
   H  0.194805717E+02 -0.248795035E+01  0.242154309E+01
  Xx  0.372690454E+03  0.728182354E+03 -0.801569471E+03
    11
 # iter = 44250  time[fs]=44.25000
   N -0.222718407E+01 -0.212148034E+01  0.248993123E+01
   N  0.221869955E+01 -0.184589944E+01  0.250345631E+01
   C -0.928242237E+00  0.189249235E+01  0.250741145E+01
   C -0.481733197E+03 -0.941608125E+03 -0.142527732E+04
   C -0.184229809E+01 -0.724572821E+00  0.249390851E+01
   C  0.176745186E+01 -0.783009437E+00  0.249874700E+01
   H -0.876214895E+01  0.154192492E+02  0.226431612E+01
   H  0.944785766E+01  0.149691735E+02  0.515699538E+01
   H -0.174117728E+02 -0.281454272E+01  0.243072853E+01
   H  0.196018787E+02 -0.250814731E+01  0.242048558E+01
  Xx  0.374822301E+03  0.732348259E+03 -0.806177411E+03
    11
 # iter = 44500  time[fs]=44.50000
   N -0.223826366E+01 -0.212890484E+01  0.249013264E+01
   N  0.222805898E+01 -0.184581316E+01  0.250343901E+01
   C -0.931161911E+00  0.189600788E+01  0.250735078E+01
   C -0.484482113E+03 -0.946980634E+03 -0.143341295E+04
   C -0.184422430E+01 -0.730437068E+00  0.249382355E+01
   C  0.177304692E+01 -0.794663331E+00  0.249872372E+01
   H -0.881810299E+01  0.155163702E+02  0.226198749E+01
   H  0.950841763E+01  0.150623270E+02  0.517563612E+01
   H -0.175225508E+02 -0.283771215E+01  0.243012616E+01
   H  0.197232567E+02 -0.252837154E+01  0.241942495E+01
  Xx  0.376954147E+03  0.736514164E+03 -0.810785351E+03
    11
 # iter = 44750  time[fs]=44.75000
   N -0.224934484E+01 -0.213612358E+01  0.249034802E+01
   N  0.223758176E+01 -0.184602747E+01  0.250346367E+01
   C -0.934093214E+00  0.189953475E+01  0.250729624E+01
   C -0.487231028E+03 -0.952353143E+03 -0.144154857E+04
   C -0.184618489E+01 -0.736590002E+00  0.249373413E+01
   C  0.177850855E+01 -0.805957181E+00  0.249864562E+01
   H -0.887410703E+01  0.156135677E+02  0.225965435E+01
   H  0.956903083E+01  0.151555470E+02  0.519429241E+01
   H -0.176334177E+02 -0.286091500E+01  0.242952267E+01
   H  0.198447058E+02 -0.254862246E+01  0.241836098E+01
  Xx  0.379085993E+03  0.740680068E+03 -0.815393291E+03
    11
 # iter = 45000  time[fs]=45.00000
   N -0.226033266E+01 -0.214317060E+01  0.249055761E+01
   N  0.224730400E+01 -0.184657703E+01  0.250345222E+01
   C -0.937024793E+00  0.190306750E+01  0.250723117E+01
   C -0.489979944E+03 -0.957725653E+03 -0.144968420E+04
   C -0.184824074E+01 -0.742993435E+00  0.249365157E+01
   C  0.178378681E+01 -0.816855192E+00  0.249861831E+01
   H -0.893016006E+01  0.157108407E+02  0.225731677E+01
   H  0.962969445E+01  0.152488337E+02  0.521296424E+01
   H -0.177443700E+02 -0.288415068E+01  0.242891808E+01
   H  0.199662260E+02 -0.256890003E+01  0.241729369E+01
  Xx  0.381217839E+03  0.744845973E+03 -0.820001231E+03
    11
 # iter = 45250  time[fs]=45.25000
   N -0.227124548E+01 -0.215004006E+01  0.249079057E+01
   N  0.225723254E+01 -0.184752392E+01  0.250346278E+01
   C -0.939974637E+00  0.190658634E+01  0.250717291E+01
   C -0.492728860E+03 -0.963098162E+03 -0.145781982E+04
   C -0.185039661E+01 -0.749675380E+00  0.249357312E+01
   C  0.178887616E+01 -0.827275180E+00  0.249853072E+01
   H -0.898626194E+01  0.158081892E+02  0.225497453E+01
   H  0.969040691E+01  0.153421871E+02  0.523165161E+01
   H -0.178554023E+02 -0.290741887E+01  0.242831237E+01
   H  0.200878171E+02 -0.258920408E+01  0.241622307E+01
  Xx  0.383349685E+03  0.749011878E+03 -0.824609171E+03
    11
 # iter = 45500  time[fs]=45.50000
   N -0.228208430E+01 -0.215672014E+01  0.249104120E+01
   N  0.226738096E+01 -0.184892308E+01  0.250343309E+01
   C -0.942945850E+00  0.191012642E+01  0.250711775E+01
   C -0.495477776E+03 -0.968470671E+03 -0.146595545E+04
   C -0.185259753E+01 -0.756666934E+00  0.249347834E+01
   C  0.179372263E+01 -0.837156189E+00  0.249850013E+01
   H -0.904241267E+01  0.159056132E+02  0.225262749E+01
   H  0.975116823E+01  0.154356070E+02  0.525035453E+01
   H -0.179665146E+02 -0.293071944E+01  0.242770555E+01
   H  0.202094792E+02 -0.260953398E+01  0.241514911E+01
  Xx  0.385481531E+03  0.753177783E+03 -0.829217110E+03
    11
 # iter = 45750  time[fs]=45.75000
   N -0.229279315E+01 -0.216323938E+01  0.249129085E+01
   N  0.227775691E+01 -0.185081002E+01  0.250343624E+01
   C -0.945923950E+00  0.191367932E+01  0.250704418E+01
   C -0.498226691E+03 -0.973843180E+03 -0.147409107E+04
   C -0.185491906E+01 -0.763968047E+00  0.249339170E+01
   C  0.179830292E+01 -0.846452550E+00  0.249842271E+01
   H -0.909861224E+01  0.160031117E+02  0.225027546E+01
   H  0.981197840E+01  0.155290926E+02  0.526907299E+01
   H -0.180777068E+02 -0.295405199E+01  0.242709763E+01
   H  0.203312063E+02 -0.262988943E+01  0.241407183E+01
  Xx  0.387613378E+03  0.757343688E+03 -0.833825050E+03
    11
 # iter = 46000  time[fs]=46.00000
   N -0.230341231E+01 -0.216958221E+01  0.249156206E+01
   N  0.228835590E+01 -0.185319338E+01  0.250339662E+01
   C -0.948923513E+00  0.191723793E+01  0.250696956E+01
   C -0.500975607E+03 -0.979215689E+03 -0.148222670E+04
   C -0.185732113E+01 -0.771554809E+00  0.249330014E+01
   C  0.180262237E+01 -0.855159054E+00  0.249838935E+01
   H -0.915486067E+01  0.161006816E+02  0.224791895E+01
   H  0.987283741E+01  0.156226406E+02  0.528780699E+01
   H -0.181889790E+02 -0.297741571E+01  0.242648859E+01
   H  0.204529955E+02 -0.265027040E+01  0.241299121E+01
  Xx  0.389745224E+03  0.761509592E+03 -0.838432990E+03
    11
 # iter = 46250  time[fs]=46.25000
   N -0.231392541E+01 -0.217578509E+01  0.249182679E+01
   N  0.229917481E+01 -0.185608295E+01  0.250337933E+01
   C -0.951930180E+00  0.192080714E+01  0.250690343E+01
   C -0.503724523E+03 -0.984588198E+03 -0.149036232E+04
   C -0.185978785E+01 -0.779417845E+00  0.249321613E+01
   C  0.180667103E+01 -0.863282039E+00  0.249830648E+01
   H -0.921115794E+01  0.161983226E+02  0.224555801E+01
   H  0.993374528E+01  0.157162508E+02  0.530655654E+01
   H -0.183003311E+02 -0.300081047E+01  0.242587853E+01
   H  0.205748470E+02 -0.267067675E+01  0.241190770E+01
  Xx  0.391877070E+03  0.765675497E+03 -0.843040930E+03
    11
 # iter = 46500  time[fs]=46.50000
   N -0.232427988E+01 -0.218186247E+01  0.249209205E+01
   N  0.231019601E+01 -0.185949566E+01  0.250334793E+01
   C -0.954947110E+00  0.192438505E+01  0.250682151E+01
   C -0.506473438E+03 -0.989960708E+03 -0.149849795E+04
   C -0.186239139E+01 -0.787513341E+00  0.249314091E+01
   C  0.181046413E+01 -0.870812530E+00  0.249825471E+01
   H -0.926750381E+01  0.162960346E+02  0.224319262E+01
   H  0.999470199E+01  0.158099231E+02  0.532532163E+01
   H -0.184117631E+02 -0.302423600E+01  0.242526749E+01
   H  0.206967606E+02 -0.269110763E+01  0.241082197E+01
  Xx  0.394008916E+03  0.769841402E+03 -0.847648870E+03
    11
 # iter = 46750  time[fs]=46.75000
   N -0.233453001E+01 -0.218780331E+01  0.249237844E+01
   N  0.232143965E+01 -0.186342436E+01  0.250332691E+01
   C -0.957978702E+00  0.192796821E+01  0.250674525E+01
   C -0.509222354E+03 -0.995333217E+03 -0.150663357E+04
   C -0.186507146E+01 -0.795881349E+00  0.249304620E+01
   C  0.181398370E+01 -0.877757276E+00  0.249817695E+01
   H -0.932389506E+01  0.163938176E+02  0.224082279E+01
   H  0.100557073E+02  0.159036576E+02  0.534410192E+01
   H -0.185232751E+02 -0.304769170E+01  0.242465534E+01
   H  0.208187363E+02 -0.271156294E+01  0.240973401E+01
  Xx  0.396140762E+03  0.774007307E+03 -0.852256810E+03
    11
 # iter = 47000  time[fs]=47.00000
   N -0.234468754E+01 -0.219359711E+01  0.249265081E+01
   N  0.233290106E+01 -0.186788172E+01  0.250329190E+01
   C -0.961005442E+00  0.193155189E+01  0.250667712E+01
   C -0.511971270E+03 -0.100070573E+04 -0.151476920E+04
   C -0.186781965E+01 -0.804517254E+00  0.249296964E+01
   C  0.181722892E+01 -0.884098113E+00  0.249809941E+01
   H -0.938033071E+01  0.164916718E+02  0.223844852E+01
   H  0.101167581E+02  0.159974543E+02  0.536289576E+01
   H -0.186348655E+02 -0.307117738E+01  0.242404245E+01
   H  0.209407743E+02 -0.273204268E+01  0.240864383E+01
  Xx  0.398272608E+03  0.778173212E+03 -0.856864750E+03
    11
 # iter = 47250  time[fs]=47.25000
   N -0.235470732E+01 -0.219925704E+01  0.249293378E+01
   N  0.234458367E+01 -0.187285723E+01  0.250325533E+01
   C -0.964052091E+00  0.193515366E+01  0.250659799E+01
   C -0.514720186E+03 -0.100607823E+04 -0.152290483E+04
   C -0.187070045E+01 -0.813407943E+00  0.249290065E+01
   C  0.182016899E+01 -0.889860890E+00  0.249802792E+01
   H -0.943681078E+01  0.165895969E+02  0.223606981E+01
   H  0.101778533E+02  0.160913132E+02  0.538170293E+01
   H -0.187465279E+02 -0.309469251E+01  0.242342896E+01
   H  0.210628744E+02 -0.275254625E+01  0.240755143E+01
  Xx  0.400404455E+03  0.782339116E+03 -0.861472690E+03
    11
 # iter = 47500  time[fs]=47.50000
   N -0.236463157E+01 -0.220476480E+01  0.249322713E+01
   N  0.235647308E+01 -0.187832189E+01  0.250324147E+01
   C -0.967115257E+00  0.193876220E+01  0.250651809E+01
   C -0.517469101E+03 -0.101145074E+04 -0.153104045E+04
   C -0.187365119E+01 -0.822569541E+00  0.249281079E+01
   C  0.182285021E+01 -0.895077333E+00  0.249792738E+01
   H -0.949333525E+01  0.166875931E+02  0.223368666E+01
   H  0.102389929E+02  0.161852342E+02  0.540052341E+01
   H -0.188582614E+02 -0.311823650E+01  0.242281453E+01
   H  0.211850367E+02 -0.277307314E+01  0.240645682E+01
  Xx  0.402536301E+03  0.786505021E+03 -0.866080630E+03
    11
 # iter = 47750  time[fs]=47.75000
   N -0.237448342E+01 -0.221011206E+01  0.249351208E+01
   N  0.236858657E+01 -0.188422795E+01  0.250319715E+01
   C -0.970172102E+00  0.194236921E+01  0.250643361E+01
   C -0.520218017E+03 -0.101682325E+04 -0.153917608E+04
   C -0.187670584E+01 -0.832004640E+00  0.249274088E+01
   C  0.182527109E+01 -0.899830903E+00  0.249785467E+01
   H -0.954990413E+01  0.167856596E+02  0.223129907E+01
   H  0.103001769E+02  0.162792174E+02  0.541935722E+01
   H -0.189700659E+02 -0.314180936E+01  0.242219898E+01
   H  0.213072611E+02 -0.279362335E+01  0.240535998E+01
  Xx  0.404668147E+03  0.790670926E+03 -0.870688570E+03
    11
 # iter = 48000  time[fs]=48.00000
   N -0.238422516E+01 -0.221529975E+01  0.249380191E+01
   N  0.238088091E+01 -0.189056285E+01  0.250318136E+01
   C -0.973260699E+00  0.194600302E+01  0.250634584E+01
   C -0.522966933E+03 -0.102219576E+04 -0.154731170E+04
   C -0.187989395E+01 -0.841702901E+00  0.249267899E+01
   C  0.182750147E+01 -0.904164972E+00  0.249773757E+01
   H -0.960651742E+01  0.168837896E+02  0.222890703E+01
   H  0.103614053E+02  0.163732628E+02  0.543820435E+01
   H -0.190819414E+02 -0.316541090E+01  0.242158233E+01
   H  0.214295478E+02 -0.281419687E+01  0.240426092E+01
  Xx  0.406799993E+03  0.794836831E+03 -0.875296510E+03
    11
 # iter = 48250  time[fs]=48.25000
   N -0.239391529E+01 -0.222031407E+01  0.249410929E+01
   N  0.239339271E+01 -0.189728846E+01  0.250313840E+01
   C -0.976363375E+00  0.194964337E+01  0.250626028E+01
   C -0.525715849E+03 -0.102756827E+04 -0.155544733E+04
   C -0.188317392E+01 -0.851699238E+00  0.249258104E+01
   C  0.182951207E+01 -0.908123036E+00  0.249767105E+01
   H -0.966317512E+01  0.169819818E+02  0.222651056E+01
   H  0.104226781E+02  0.164673685E+02  0.545706480E+01
   H -0.191938880E+02 -0.318904088E+01  0.242096457E+01
   H  0.215518966E+02 -0.283479363E+01  0.240315964E+01
  Xx  0.408931839E+03  0.799002735E+03 -0.879904450E+03
    11
 # iter = 48500  time[fs]=48.50000
   N -0.240356962E+01 -0.222514459E+01  0.249441140E+01
   N  0.240609346E+01 -0.190440275E+01  0.250312699E+01
   C -0.979458614E+00  0.195329221E+01  0.250616846E+01
   C -0.528464764E+03 -0.103294078E+04 -0.156358295E+04
   C -0.188654426E+01 -0.861980422E+00  0.249251011E+01
   C  0.183135176E+01 -0.911695778E+00  0.249754597E+01
   H -0.971987723E+01  0.170802362E+02  0.222410964E+01
   H  0.104839953E+02  0.165615280E+02  0.547593858E+01
   H -0.193059057E+02 -0.321269863E+01  0.242034569E+01
   H  0.216743075E+02 -0.285541280E+01  0.240205614E+01
  Xx  0.411063685E+03  0.803168640E+03 -0.884512390E+03
    11
 # iter = 48750  time[fs]=48.75000
   N -0.241313484E+01 -0.222982761E+01  0.249471670E+01
   N  0.241900051E+01 -0.191187679E+01  0.250306931E+01
   C -0.982581985E+00  0.195695924E+01  0.250607875E+01
   C -0.531213680E+03 -0.103831329E+04 -0.157171858E+04
   C -0.189006504E+01 -0.872530127E+00  0.249243806E+01
   C  0.183299459E+01 -0.914935386E+00  0.249747811E+01
   H -0.977662281E+01  0.171785527E+02  0.222170429E+01
   H  0.105453570E+02  0.166557408E+02  0.549482568E+01
   H -0.194179944E+02 -0.323638413E+01  0.241972571E+01
   H  0.217967793E+02 -0.287605418E+01  0.240095042E+01
  Xx  0.413195532E+03  0.807334545E+03 -0.889120330E+03
    11
 # iter = 49000  time[fs]=49.00000
   N -0.242268701E+01 -0.223432484E+01  0.249503213E+01
   N  0.243207882E+01 -0.191968286E+01  0.250306165E+01
   C -0.985699628E+00  0.196062694E+01  0.250598734E+01
   C -0.533962596E+03 -0.104368580E+04 -0.157985420E+04
   C -0.189368711E+01 -0.883335594E+00  0.249235743E+01
   C  0.183451267E+01 -0.917884611E+00  0.249734031E+01
   H -0.983340864E+01  0.172769314E+02  0.221929449E+01
   H  0.106067630E+02  0.167500069E+02  0.551372610E+01
   H -0.195301541E+02 -0.326009738E+01  0.241910462E+01
   H  0.219193053E+02 -0.289671776E+01  0.239984248E+01
  Xx  0.415327378E+03  0.811500450E+03 -0.893728270E+03
    11
 # iter = 49250  time[fs]=49.25000
   N -0.243223166E+01 -0.223866393E+01  0.249533467E+01
   N  0.244533359E+01 -0.192774716E+01  0.250300656E+01
   C -0.988815232E+00  0.196430883E+01  0.250589421E+01
   C -0.536711512E+03 -0.104905831E+04 -0.158798983E+04
   C -0.189741387E+01 -0.894402497E+00  0.249230513E+01
   C  0.183591737E+01 -0.920648714E+00  0.249726507E+01
   H -0.989023444E+01  0.173753723E+02  0.221688026E+01
   H  0.106682111E+02  0.168443262E+02  0.553263985E+01
   H -0.196423849E+02 -0.328383780E+01  0.241848277E+01
   H  0.220418846E+02 -0.291740355E+01  0.239873232E+01
  Xx  0.417459224E+03  0.815666355E+03 -0.898336210E+03
    11
 # iter = 49500  time[fs]=49.50000
   N -0.244171207E+01 -0.224283886E+01  0.249565364E+01
   N  0.245870996E+01 -0.193603886E+01  0.250298968E+01
   C -0.991959183E+00  0.196799268E+01  0.250580703E+01
   C -0.539460427E+03 -0.105443082E+04 -0.159612545E+04
   C -0.190127529E+01 -0.905702197E+00  0.249222161E+01
   C  0.183727791E+01 -0.923289877E+00  0.249711993E+01
   H -0.994710020E+01  0.174738753E+02  0.221446158E+01
   H  0.107296992E+02  0.169386989E+02  0.555156691E+01
   H -0.197546868E+02 -0.330760486E+01  0.241786009E+01
   H  0.221645171E+02 -0.293811101E+01  0.239761993E+01
  Xx  0.419591070E+03  0.819832259E+03 -0.902944150E+03
    11
 # iter = 49750  time[fs]=49.75000
   N -0.245118895E+01 -0.224683450E+01  0.249597142E+01
   N  0.247221278E+01 -0.194450080E+01  0.250292479E+01
   C -0.995096706E+00  0.197168401E+01  0.250570312E+01
   C -0.542209343E+03 -0.105980333E+04 -0.160426108E+04
   C -0.190523953E+01 -0.917271618E+00  0.249214967E+01
   C  0.183857868E+01 -0.925866906E+00  0.249704196E+01
   H -0.100040059E+02  0.175724406E+02  0.221203846E+01
   H  0.107912272E+02  0.170331249E+02  0.557050730E+01
   H -0.198670588E+02 -0.333139855E+01  0.241723668E+01
   H  0.222872030E+02 -0.295883957E+01  0.239650533E+01
  Xx  0.421722916E+03  0.823998164E+03 -0.907552090E+03
    11
 # iter = 50000  time[fs]=50.00000
   N -0.246062555E+01 -0.225064173E+01  0.249626844E+01
   N  0.248580610E+01 -0.195311107E+01  0.250289423E+01
   C -0.998245775E+00  0.197539302E+01  0.250559698E+01
   C -0.544958259E+03 -0.106517584E+04 -0.161239670E+04
   C -0.190931531E+01 -0.929107554E+00  0.249212002E+01
   C  0.183985152E+01 -0.928364790E+00  0.249690937E+01
   H -0.100609516E+02  0.176710680E+02  0.220961090E+01
   H  0.108527953E+02  0.171276041E+02  0.558946101E+01
   H -0.199794941E+02 -0.335521844E+01  0.241661242E+01
   H  0.224099421E+02 -0.297958922E+01  0.239538851E+01
  Xx  0.423854762E+03  0.828164069E+03 -0.912160030E+03
    11
 # iter = 50250  time[fs]=50.25000
   N -0.247000490E+01 -0.225426233E+01  0.249658455E+01
   N  0.249946526E+01 -0.196183442E+01  0.250281427E+01
   C -0.100140961E+01  0.197909709E+01  0.250550302E+01
   C -0.547707175E+03 -0.107054834E+04 -0.162053233E+04
   C -0.191355041E+01 -0.941216785E+00  0.249206259E+01
   C  0.184108294E+01 -0.930829259E+00  0.249682654E+01
   H -0.101179373E+02  0.177697575E+02  0.220717934E+01
   H  0.109144032E+02  0.172221366E+02  0.560842791E+01
   H -0.200919917E+02 -0.337906423E+01  0.241598741E+01
   H  0.225327345E+02 -0.300035996E+01  0.239426947E+01
  Xx  0.425986609E+03  0.832329974E+03 -0.916767970E+03
    11
 # iter = 50500  time[fs]=50.50000
   N -0.247936189E+01 -0.225767248E+01  0.249690941E+01
   N  0.251313651E+01 -0.197063264E+01  0.250276133E+01
   C -0.100457551E+01  0.198281623E+01  0.250538826E+01
   C -0.550456090E+03 -0.107592085E+04 -0.162866795E+04
   C -0.191788490E+01 -0.953599541E+00  0.249200764E+01
   C  0.184232848E+01 -0.933322957E+00  0.249670663E+01
   H -0.101749629E+02  0.178685093E+02  0.220474373E+01
   H  0.109760512E+02  0.173167225E+02  0.562740660E+01
   H -0.202045514E+02 -0.340293556E+01  0.241536143E+01
   H  0.226555803E+02 -0.302115180E+01  0.239314820E+01
  Xx  0.428118455E+03  0.836495879E+03 -0.921375910E+03
    11
 # iter = 50750  time[fs]=50.75000
   N -0.248864273E+01 -0.226089872E+01  0.249721807E+01
   N  0.252677635E+01 -0.197945586E+01  0.250269602E+01
   C -0.100775598E+01  0.198655227E+01  0.250527370E+01
   C -0.553205006E+03 -0.108129336E+04 -0.163680358E+04
   C -0.192232915E+01 -0.966237289E+00  0.249197534E+01
   C  0.184364270E+01 -0.935895761E+00  0.249660688E+01
   H -0.102320285E+02  0.179673232E+02  0.220230475E+01
   H  0.110377391E+02  0.174113616E+02  0.564639663E+01
   H -0.203171733E+02 -0.342683243E+01  0.241473469E+01
   H  0.227784793E+02 -0.304196435E+01  0.239202472E+01
  Xx  0.430250301E+03  0.840661783E+03 -0.925983850E+03
    11
 # iter = 51000  time[fs]=51.00000
   N -0.249784103E+01 -0.226392980E+01  0.249753974E+01
   N  0.254034085E+01 -0.198827545E+01  0.250262064E+01
   C -0.101093241E+01  0.199028332E+01  0.250517585E+01
   C -0.555953922E+03 -0.108666587E+04 -0.164493921E+04
   C -0.192692995E+01 -0.979126865E+00  0.249192827E+01
   C  0.184502945E+01 -0.938578305E+00  0.249649763E+01
   H -0.102891341E+02  0.180661984E+02  0.219986243E+01
   H  0.110994670E+02  0.175060540E+02  0.566539776E+01
   H -0.204298574E+02 -0.345075481E+01  0.241410712E+01
   H  0.229014316E+02 -0.306279689E+01  0.239089901E+01
  Xx  0.432382147E+03  0.844827688E+03 -0.930591790E+03
    11
 # iter = 51250  time[fs]=51.25000
   N -0.250697863E+01 -0.226674694E+01  0.249786286E+01
   N  0.255378887E+01 -0.199707607E+01  0.250255908E+01
   C -0.101411995E+01  0.199402766E+01  0.250506010E+01
   C -0.558702838E+03 -0.109203838E+04 -0.165307483E+04
   C -0.193162744E+01 -0.992297800E+00  0.249189603E+01
   C  0.184651553E+01 -0.941346153E+00  0.249636918E+01
   H -0.103462796E+02  0.181651282E+02  0.219741678E+01
   H  0.111612348E+02  0.176007997E+02  0.568441000E+01
   H -0.205426036E+02 -0.347470198E+01  0.241347890E+01
   H  0.230244372E+02 -0.308364942E+01  0.238977109E+01
  Xx  0.434513993E+03  0.848993593E+03 -0.935199729E+03
    11
 # iter = 51500  time[fs]=51.50000
   N -0.251600149E+01 -0.226938471E+01  0.249817882E+01
   N  0.256713610E+01 -0.200580660E+01  0.250246096E+01
   C -0.101731951E+01  0.199779545E+01  0.250494271E+01
   C -0.561451753E+03 -0.109741089E+04 -0.166121046E+04
   C -0.193646758E+01 -0.100570430E+01  0.249186542E+01
   C  0.184806630E+01 -0.944236950E+00  0.249629310E+01
   H -0.104034623E+02  0.182641113E+02  0.219496780E+01
   H  0.112230427E+02  0.176955987E+02  0.570343333E+01
   H -0.206554121E+02 -0.349867357E+01  0.241284978E+01
   H  0.231474961E+02 -0.310452194E+01  0.238864094E+01
  Xx  0.436645839E+03  0.853159498E+03 -0.939807669E+03
    11
 # iter = 51750  time[fs]=51.75000
   N -0.252494161E+01 -0.227183189E+01  0.249850243E+01
   N  0.258032436E+01 -0.201444722E+01  0.250238667E+01
   C -0.102049671E+01  0.200155107E+01  0.250483270E+01
   C -0.564200669E+03 -0.110278340E+04 -0.166934608E+04
   C -0.194141557E+01 -0.101933665E+01  0.249182629E+01
   C  0.184975989E+01 -0.947275659E+00  0.249615980E+01
   H -0.104606805E+02  0.183631477E+02  0.219251549E+01
   H  0.112848894E+02  0.177904509E+02  0.572246777E+01
   H -0.207682826E+02 -0.352266959E+01  0.241221958E+01
   H  0.232706082E+02 -0.312541442E+01  0.238750858E+01
  Xx  0.438777686E+03  0.857325403E+03 -0.944415609E+03
    11
 # iter = 52000  time[fs]=52.00000
   N -0.253378533E+01 -0.227409771E+01  0.249880965E+01
   N  0.259337350E+01 -0.202292239E+01  0.250226765E+01
   C -0.102368877E+01  0.200532763E+01  0.250471689E+01
   C -0.566949585E+03 -0.110815591E+04 -0.167748171E+04
   C -0.194644727E+01 -0.103319288E+01  0.249181302E+01
   C  0.185159025E+01 -0.950541264E+00  0.249609042E+01
   H -0.105179342E+02  0.184622374E+02  0.219005985E+01
   H  0.113467718E+02  0.178853562E+02  0.574151331E+01
   H -0.208812154E+02 -0.354669000E+01  0.241158903E+01
   H  0.233937737E+02 -0.314632668E+01  0.238637399E+01
  Xx  0.440909532E+03  0.861491307E+03 -0.949023549E+03
    11
 # iter = 52250  time[fs]=52.25000
   N -0.254248457E+01 -0.227620767E+01  0.249912467E+01
   N  0.260627167E+01 -0.203120974E+01  0.250218377E+01
   C -0.102688807E+01  0.200912318E+01  0.250459587E+01
   C -0.569698501E+03 -0.111352842E+04 -0.168561733E+04
   C -0.195162575E+01 -0.104721688E+01  0.249178081E+01
   C  0.185358399E+01 -0.954041695E+00  0.249597583E+01
   H -0.105752235E+02  0.185613803E+02  0.218760088E+01
   H  0.114086897E+02  0.179803083E+02  0.576056996E+01
   H -0.209942103E+02 -0.357073405E+01  0.241095793E+01
   H  0.235169925E+02 -0.316725810E+01  0.238523719E+01
  Xx  0.443041378E+03  0.865657212E+03 -0.953631489E+03
    11
 # iter = 52500  time[fs]=52.50000
   N -0.255109224E+01 -0.227815152E+01  0.249943772E+01
   N  0.261901178E+01 -0.203932338E+01  0.250208152E+01
   C -0.103006749E+01  0.201290200E+01  0.250446979E+01
   C -0.572447416E+03 -0.111890093E+04 -0.169375296E+04
   C -0.195688844E+01 -0.106144030E+01  0.249176698E+01
   C  0.185574408E+01 -0.957745667E+00  0.249586882E+01
   H -0.106325483E+02  0.186605766E+02  0.218513858E+01
   H  0.114706432E+02  0.180753048E+02  0.577963770E+01
   H -0.211072674E+02 -0.359480141E+01  0.241032640E+01
   H  0.236402645E+02 -0.318820840E+01  0.238409816E+01
  Xx  0.445173224E+03  0.869823117E+03 -0.958239429E+03
    11
 # iter = 52750  time[fs]=52.75000
   N -0.255957785E+01 -0.227994077E+01  0.249973551E+01
   N  0.263163531E+01 -0.204724003E+01  0.250196793E+01
   C -0.103326169E+01  0.201671275E+01  0.250435201E+01
   C -0.575196332E+03 -0.112427344E+04 -0.170188858E+04
   C -0.196224615E+01 -0.107584351E+01  0.249177388E+01
   C  0.185804848E+01 -0.961666787E+00  0.249578609E+01
   H -0.106899086E+02  0.187598261E+02  0.218267295E+01
   H  0.115326322E+02  0.181703458E+02  0.579871655E+01
   H -0.212203866E+02 -0.361889208E+01  0.240969446E+01
   H  0.237635872E+02 -0.320917757E+01  0.238295691E+01
  Xx  0.447305070E+03  0.873989022E+03 -0.962847369E+03
    11
 # iter = 53000  time[fs]=53.00000
   N -0.256793473E+01 -0.228158440E+01  0.250005045E+01
   N  0.264410942E+01 -0.205494177E+01  0.250188370E+01
   C -0.103646161E+01  0.202052991E+01  0.250422493E+01
   C -0.577945248E+03 -0.112964595E+04 -0.171002421E+04
   C -0.196772405E+01 -0.109039663E+01  0.249175473E+01
   C  0.186056472E+01 -0.965828909E+00  0.249565597E+01
   H -0.107473045E+02  0.188591290E+02  0.218020399E+01
   H  0.115946568E+02  0.182654311E+02  0.581780650E+01
   H -0.213335635E+02 -0.364300607E+01  0.240906196E+01
   H  0.238869545E+02 -0.323016561E+01  0.238181344E+01
  Xx  0.449436916E+03  0.878154926E+03 -0.967455309E+03
    11
 # iter = 53250  time[fs]=53.25000
   N -0.257619972E+01 -0.228308477E+01  0.250034844E+01
   N  0.265646834E+01 -0.206239797E+01  0.250173383E+01
   C -0.103965534E+01  0.202433390E+01  0.250408618E+01
   C -0.580694164E+03 -0.113501845E+04 -0.171815983E+04
   C -0.197325345E+01 -0.110511148E+01  0.249176353E+01
   C  0.186327702E+01 -0.970278473E+00  0.249558998E+01
   H -0.108047358E+02  0.189584851E+02  0.217773169E+01
   H  0.116567168E+02  0.183605608E+02  0.583690755E+01
   H -0.214467952E+02 -0.366714312E+01  0.240842897E+01
   H  0.240103662E+02 -0.325117253E+01  0.238066775E+01
  Xx  0.451568763E+03  0.882320831E+03 -0.972063249E+03
    11
 # iter = 53500  time[fs]=53.50000
   N -0.258432404E+01 -0.228447970E+01  0.250065463E+01
   N  0.266874735E+01 -0.206959811E+01  0.250162818E+01
   C -0.104285710E+01  0.202816575E+01  0.250396616E+01
   C -0.583443079E+03 -0.114039096E+04 -0.172629546E+04
   C -0.197889605E+01 -0.111993636E+01  0.249176024E+01
   C  0.186617842E+01 -0.975011079E+00  0.249548101E+01
   H -0.108622027E+02  0.190578945E+02  0.217525607E+01
   H  0.117188124E+02  0.184557350E+02  0.585601970E+01
   H -0.215600802E+02 -0.369130242E+01  0.240779576E+01
   H  0.241338223E+02 -0.327219785E+01  0.237951985E+01
  Xx  0.453700609E+03  0.886486736E+03 -0.976671189E+03
    11
 # iter = 53750  time[fs]=53.75000
   N -0.259236397E+01 -0.228576091E+01  0.250094944E+01
   N  0.268092748E+01 -0.207655055E+01  0.250150662E+01
   C -0.104606093E+01  0.203200096E+01  0.250383155E+01
   C -0.586191995E+03 -0.114576347E+04 -0.173443108E+04
   C -0.198461917E+01 -0.113489065E+01  0.249176568E+01
   C  0.186927598E+01 -0.980004909E+00  0.249537576E+01
   H -0.109197052E+02  0.191573572E+02  0.217277712E+01
   H  0.117809435E+02  0.185509535E+02  0.587514296E+01
   H -0.216734184E+02 -0.371548394E+01  0.240716207E+01
   H  0.242573228E+02 -0.329324093E+01  0.237836972E+01
  Xx  0.455832455E+03  0.890652641E+03 -0.981279129E+03
    11
 # iter = 54000  time[fs]=54.00000
   N -0.260031561E+01 -0.228695090E+01  0.250124493E+01
   N  0.269302013E+01 -0.208324452E+01  0.250136553E+01
   C -0.104926707E+01  0.203582976E+01  0.250368508E+01
   C -0.588940911E+03 -0.115113598E+04 -0.174256671E+04
   C -0.199040253E+01 -0.114994076E+01  0.249178270E+01
   C  0.187256233E+01 -0.985276911E+00  0.249529460E+01
   H -0.109772431E+02  0.192568732E+02  0.217029483E+01
   H  0.118431102E+02  0.186462165E+02  0.589427732E+01
   H -0.217868100E+02 -0.373968765E+01  0.240652805E+01
   H  0.243808677E+02 -0.331430179E+01  0.237721737E+01
  Xx  0.457964301E+03  0.894818546E+03 -0.985887069E+03
    11
 # iter = 54250  time[fs]=54.25000
   N -0.260817964E+01 -0.228807985E+01  0.250153827E+01
   N  0.270499354E+01 -0.208969099E+01  0.250126933E+01
   C -0.105246509E+01  0.203968273E+01  0.250356211E+01
   C -0.591689827E+03 -0.115650849E+04 -0.175070233E+04
   C -0.199626181E+01 -0.116504233E+01  0.249179215E+01
   C  0.187610739E+01 -0.990825996E+00  0.249516956E+01
   H -0.110348155E+02  0.193564425E+02  0.216780921E+01
   H  0.119053124E+02  0.187415239E+02  0.591342278E+01
   H -0.219002549E+02 -0.376391357E+01  0.240589383E+01
   H  0.245044571E+02 -0.333538040E+01  0.237606280E+01
  Xx  0.460096147E+03  0.898984450E+03 -0.990495009E+03
    11
 # iter = 54500  time[fs]=54.50000
   N -0.261604361E+01 -0.228913505E+01  0.250181607E+01
   N  0.271683686E+01 -0.209587505E+01  0.250111087E+01
   C -0.105567328E+01  0.204353319E+01  0.250341991E+01
   C -0.594438742E+03 -0.116188100E+04 -0.175883796E+04
   C -0.200213908E+01 -0.118023151E+01  0.249181610E+01
   C  0.187988280E+01 -0.996686161E+00  0.249510320E+01
   H -0.110924212E+02  0.194560651E+02  0.216532027E+01
   H  0.119675501E+02  0.188368757E+02  0.593257934E+01
   H -0.220137530E+02 -0.378816119E+01  0.240525960E+01
   H  0.246280908E+02 -0.335647678E+01  0.237490601E+01
  Xx  0.462227993E+03  0.903150355E+03 -0.995102949E+03
    11
 # iter = 54750  time[fs]=54.75000
   N -0.262385159E+01 -0.229016775E+01  0.250211153E+01
   N  0.272857998E+01 -0.210179296E+01  0.250096697E+01
   C -0.105889405E+01  0.204738451E+01  0.250327090E+01
   C -0.597187658E+03 -0.116725351E+04 -0.176697358E+04
   C -0.200806966E+01 -0.119544276E+01  0.249182099E+01
   C  0.188386760E+01 -0.100284401E+01  0.249501988E+01
   H -0.111500580E+02  0.195557390E+02  0.216282799E+01
   H  0.120298217E+02  0.189322719E+02  0.595174701E+01
   H -0.221273044E+02 -0.381242990E+01  0.240462538E+01
   H  0.247517690E+02 -0.337759092E+01  0.237374699E+01
  Xx  0.464359840E+03  0.907316260E+03 -0.999710889E+03
    11
 # iter = 55000  time[fs]=55.00000
   N -0.263168915E+01 -0.229118307E+01  0.250238844E+01
   N  0.274019380E+01 -0.210746902E+01  0.250084455E+01
   C -0.106208741E+01  0.205125430E+01  0.250314110E+01
   C -0.599936574E+03 -0.117262602E+04 -0.177510921E+04
   C -0.201398373E+01 -0.121066458E+01  0.249184154E+01
   C  0.188806882E+01 -0.100927232E+01  0.249491245E+01
   H -0.112077259E+02  0.196554578E+02  0.216033238E+01
   H  0.120921244E+02  0.190277125E+02  0.597092578E+01
   H -0.222409091E+02 -0.383671971E+01  0.240399115E+01
   H  0.248754915E+02 -0.339872242E+01  0.237258576E+01
  Xx  0.466491686E+03  0.911482165E+03 -0.100431883E+04
    11
 # iter = 55250  time[fs]=55.25000
   N -0.263956415E+01 -0.229224033E+01  0.250267716E+01
   N  0.275165244E+01 -0.211289078E+01  0.250068204E+01
   C -0.106530665E+01  0.205511641E+01  0.250299523E+01
   C -0.602685490E+03 -0.117799853E+04 -0.178324484E+04
   C -0.201989220E+01 -0.122583051E+01  0.249184612E+01
   C  0.189248114E+01 -0.101600372E+01  0.249484243E+01
   H -0.112654248E+02  0.197552209E+02  0.215783344E+01
   H  0.121544583E+02  0.191231975E+02  0.599011565E+01
   H -0.223545672E+02 -0.386103061E+01  0.240335693E+01
   H  0.249992585E+02 -0.341987090E+01  0.237142231E+01
  Xx  0.468623532E+03  0.915648070E+03 -0.100892677E+04
    11
 # iter = 55500  time[fs]=55.50000
   N -0.264750030E+01 -0.229335546E+01  0.250295624E+01
   N  0.276292789E+01 -0.211807283E+01  0.250055357E+01
   C -0.106853347E+01  0.205899171E+01  0.250284998E+01
   C -0.605434405E+03 -0.118337104E+04 -0.179138046E+04
   C -0.202575990E+01 -0.124091757E+01  0.249186418E+01
   C  0.189717029E+01 -0.102302989E+01  0.249474180E+01
   H -0.113231549E+02  0.198550285E+02  0.215533118E+01
   H  0.122168232E+02  0.192187269E+02  0.600931648E+01
   H -0.224682785E+02 -0.388536261E+01  0.240272266E+01
   H  0.251230699E+02 -0.344103604E+01  0.237025664E+01
  Xx  0.470755378E+03  0.919813974E+03 -0.101353471E+04
    11
 # iter = 55750  time[fs]=55.75000
   N -0.265555380E+01 -0.229453708E+01  0.250323616E+01
   N  0.277399638E+01 -0.212304315E+01  0.250039193E+01
   C -0.107172492E+01  0.206287328E+01  0.250271091E+01
   C -0.608183321E+03 -0.118874355E+04 -0.179951609E+04
   C -0.203155797E+01 -0.125590170E+01  0.249187228E+01
   C  0.190211744E+01 -0.103035551E+01  0.249467159E+01
   H -0.113809160E+02  0.199548805E+02  0.215282558E+01
   H  0.122792192E+02  0.193143008E+02  0.602852668E+01
   H -0.225820431E+02 -0.390971526E+01  0.240208826E+01
   H  0.252469257E+02 -0.346221784E+01  0.236908875E+01
  Xx  0.472887224E+03  0.923979879E+03 -0.101814265E+04
    11
 # iter = 56000  time[fs]=56.00000
   N -0.266372461E+01 -0.229584959E+01  0.250350161E+01
   N  0.278488853E+01 -0.212777822E+01  0.250022493E+01
   C -0.107495253E+01  0.206675959E+01  0.250256463E+01
   C -0.610932237E+03 -0.119411606E+04 -0.180765171E+04
   C -0.203729607E+01 -0.127072206E+01  0.249189062E+01
   C  0.190726187E+01 -0.103795923E+01  0.249460186E+01
   H -0.114387082E+02  0.200547769E+02  0.215031664E+01
   H  0.123416463E+02  0.194099190E+02  0.604774575E+01
   H -0.226958609E+02 -0.393408790E+01  0.240145387E+01
   H  0.253708259E+02 -0.348341628E+01  0.236791863E+01
  Xx  0.475019070E+03  0.928145784E+03 -0.102275059E+04
    11
 # iter = 56250  time[fs]=56.25000
   N -0.267209165E+01 -0.229730794E+01  0.250377233E+01
   N  0.279558534E+01 -0.213230666E+01  0.250009345E+01
   C -0.107817850E+01  0.207065699E+01  0.250241699E+01
   C -0.613681153E+03 -0.119948856E+04 -0.181578734E+04
   C -0.204286599E+01 -0.128536466E+01  0.249189818E+01
   C  0.191263539E+01 -0.104582466E+01  0.249449852E+01
   H -0.114965315E+02  0.201547177E+02  0.214780438E+01
   H  0.124041045E+02  0.195055817E+02  0.606697370E+01
   H -0.228097321E+02 -0.395848052E+01  0.240081948E+01
   H  0.254947705E+02 -0.350463138E+01  0.236674630E+01
  Xx  0.477150917E+03  0.932311689E+03 -0.102735853E+04
    11
 # iter = 56500  time[fs]=56.50000
   N -0.268063307E+01 -0.229896598E+01  0.250403252E+01
   N  0.280606162E+01 -0.213663713E+01  0.249992925E+01
   C -0.108138061E+01  0.207455920E+01  0.250225882E+01
   C -0.616430068E+03 -0.120486107E+04 -0.182392296E+04
   C -0.204832133E+01 -0.129972978E+01  0.249190871E+01
   C  0.191824433E+01 -0.105398628E+01  0.249442672E+01
   H -0.115543859E+02  0.202547029E+02  0.214528879E+01
   H  0.124665937E+02  0.196012887E+02  0.608621054E+01
   H -0.229236566E+02 -0.398289313E+01  0.240018508E+01
   H  0.256187595E+02 -0.352586314E+01  0.236557179E+01
  Xx  0.479282763E+03  0.936477594E+03 -0.103196647E+04
    11
 # iter = 56750  time[fs]=56.75000
   N -0.268944405E+01 -0.230082962E+01  0.250429646E+01
   N  0.281631609E+01 -0.214076454E+01  0.249977140E+01
   C -0.108461683E+01  0.207847956E+01  0.250211639E+01
   C -0.619178984E+03 -0.121023358E+04 -0.183205859E+04
   C -0.205354242E+01 -0.131383415E+01  0.249191206E+01
   C  0.192410998E+01 -0.106242552E+01  0.249434727E+01
   H -0.116122714E+02  0.203547325E+02  0.214276987E+01
   H  0.125291141E+02  0.196970402E+02  0.610545626E+01
   H -0.230376343E+02 -0.400732572E+01  0.239955069E+01
   H  0.257427930E+02 -0.354711139E+01  0.236439523E+01
  Xx  0.481414609E+03  0.940643498E+03 -0.103657441E+04
    11
 # iter = 57000  time[fs]=57.00000
   N -0.269848178E+01 -0.230297087E+01  0.250456580E+01
   N  0.282632333E+01 -0.214474361E+01  0.249961465E+01
   C -0.108783901E+01  0.208239799E+01  0.250197022E+01
   C -0.621927900E+03 -0.121560609E+04 -0.184019421E+04
   C -0.205859086E+01 -0.132758640E+01  0.249191312E+01
   C  0.193022684E+01 -0.107110918E+01  0.249427034E+01
   H -0.116701880E+02  0.204548065E+02  0.214024762E+01
   H  0.125916655E+02  0.197928354E+02  0.612471086E+01
   H -0.231516654E+02 -0.403177829E+01  0.239891629E+01
   H  0.258668708E+02 -0.356837571E+01  0.236321644E+01
  Xx  0.483546455E+03  0.944809403E+03 -0.104118235E+04
    11
 # iter = 57250  time[fs]=57.25000
   N -0.270783332E+01 -0.230537677E+01  0.250482694E+01
   N  0.283613451E+01 -0.214854211E+01  0.249944606E+01
   C -0.109105610E+01  0.208633244E+01  0.250179919E+01
   C -0.624676815E+03 -0.122097860E+04 -0.184832984E+04
   C -0.206335924E+01 -0.134099917E+01  0.249191979E+01
   C  0.193654594E+01 -0.108006047E+01  0.249420475E+01
   H -0.117281356E+02  0.205549250E+02  0.213772203E+01
   H  0.126542481E+02  0.198886705E+02  0.614397434E+01
   H -0.232657456E+02 -0.405625085E+01  0.239828190E+01
   H  0.259909930E+02 -0.358965556E+01  0.236203544E+01
  Xx  0.485678301E+03  0.948975308E+03 -0.104579029E+04
    11
 # iter = 57500  time[fs]=57.50000
   N -0.271745133E+01 -0.230811172E+01  0.250508873E+01
   N  0.284575444E+01 -0.215214687E+01  0.249930441E+01
   C -0.109428984E+01  0.209028617E+01  0.250165814E+01
   C -0.627425731E+03 -0.122635111E+04 -0.185646546E+04
   C -0.206788957E+01 -0.135398645E+01  0.249191911E+01
   C  0.194308292E+01 -0.108928659E+01  0.249411038E+01
   H -0.117861144E+02  0.206550878E+02  0.213519312E+01
   H  0.127168617E+02  0.199845421E+02  0.616324670E+01
   H -0.233798702E+02 -0.408074340E+01  0.239764750E+01
   H  0.261151597E+02 -0.361095096E+01  0.236085222E+01
  Xx  0.487810147E+03  0.953141213E+03 -0.105039823E+04
    11
 # iter = 57750  time[fs]=57.75000
   N -0.272738804E+01 -0.231116882E+01  0.250534759E+01
   N  0.285515173E+01 -0.215560336E+01  0.249914298E+01
   C -0.109751439E+01  0.209424148E+01  0.250151000E+01
   C -0.630174647E+03 -0.123172362E+04 -0.186460109E+04
   C -0.207210697E+01 -0.136657417E+01  0.249192382E+01
   C  0.194986521E+01 -0.109877791E+01  0.249404343E+01
   H -0.118441242E+02  0.207552951E+02  0.213266087E+01
   H  0.127795064E+02  0.200804493E+02  0.618252795E+01
   H -0.234940393E+02 -0.410525592E+01  0.239701311E+01
   H  0.262393707E+02 -0.363226191E+01  0.235966708E+01
  Xx  0.489941994E+03  0.957307117E+03 -0.105500617E+04
    11
 # iter = 58000  time[fs]=58.00000
   N -0.273761258E+01 -0.231457875E+01  0.250561774E+01
   N  0.286435930E+01 -0.215889975E+01  0.249897978E+01
   C -0.110075141E+01  0.209822089E+01  0.250133834E+01
   C -0.632923563E+03 -0.123709613E+04 -0.187273671E+04
   C -0.207606227E+01 -0.137871018E+01  0.249189873E+01
   C  0.195689554E+01 -0.110853199E+01  0.249397077E+01
   H -0.119021633E+02  0.208555467E+02  0.213012530E+01
   H  0.128421822E+02  0.201763920E+02  0.620181808E+01
   H -0.236082527E+02 -0.412978737E+01  0.239637871E+01
   H  0.263636205E+02 -0.365358840E+01  0.235848008E+01
  Xx  0.492073840E+03  0.961473022E+03 -0.105961411E+04
    11
 # iter = 58250  time[fs]=58.25000
   N -0.274816796E+01 -0.231833890E+01  0.250587753E+01
   N  0.287335976E+01 -0.216207400E+01  0.249882459E+01
   C -0.110397996E+01  0.210220838E+01  0.250119385E+01
   C -0.635672478E+03 -0.124246864E+04 -0.188087234E+04
   C -0.207967764E+01 -0.139040674E+01  0.249187260E+01
   C  0.196415803E+01 -0.111851217E+01  0.249388868E+01
   H -0.119602291E+02  0.209558428E+02  0.212758639E+01
   H  0.129048880E+02  0.202723703E+02  0.622111709E+01
   H -0.237225106E+02 -0.415433658E+01  0.239574432E+01
   H  0.264879059E+02 -0.367493043E+01  0.235729137E+01
  Xx  0.494205686E+03  0.965638927E+03 -0.106422205E+04
    11
 # iter = 58500  time[fs]=58.50000
   N -0.275900479E+01 -0.232248536E+01  0.250614976E+01
   N  0.288218585E+01 -0.216510894E+01  0.249866167E+01
   C -0.110721747E+01  0.210619766E+01  0.250104028E+01
   C -0.638421394E+03 -0.124784115E+04 -0.188900796E+04
   C -0.208297895E+01 -0.140160511E+01  0.249182788E+01
   C  0.197165005E+01 -0.112873676E+01  0.249382551E+01
   H -0.120183215E+02  0.210561833E+02  0.212504415E+01
   H  0.129676207E+02  0.203683840E+02  0.624042498E+01
   H -0.238368128E+02 -0.417890355E+01  0.239510993E+01
   H  0.266122267E+02 -0.369628800E+01  0.235610111E+01
  Xx  0.496337532E+03  0.969804832E+03 -0.106882999E+04
    11
 # iter = 58750  time[fs]=58.75000
   N -0.277015036E+01 -0.232699236E+01  0.250642240E+01
   N  0.289088055E+01 -0.216796539E+01  0.249851411E+01
   C -0.111046443E+01  0.211022443E+01  0.250087715E+01
   C -0.641170310E+03 -0.125321366E+04 -0.189714359E+04
   C -0.208591281E+01 -0.141234083E+01  0.249177209E+01
   C  0.197935572E+01 -0.113924867E+01  0.249373885E+01
   H -0.120764405E+02  0.211565682E+02  0.212249858E+01
   H  0.130303801E+02  0.204644333E+02  0.625974175E+01
   H -0.239511595E+02 -0.420348829E+01  0.239447553E+01
   H  0.267365831E+02 -0.371766077E+01  0.235490893E+01
  Xx  0.498469378E+03  0.973970737E+03 -0.107343793E+04
    11
 # iter = 59000  time[fs]=59.00000
   N -0.278155678E+01 -0.233187277E+01  0.250667995E+01
   N  0.289941796E+01 -0.217069021E+01  0.249836024E+01
   C -0.111369390E+01  0.211424743E+01  0.250072640E+01
   C -0.643919226E+03 -0.125858617E+04 -0.190527921E+04
   C -0.208854399E+01 -0.142260988E+01  0.249172277E+01
   C  0.198729319E+01 -0.115003237E+01  0.249366626E+01
   H -0.121345862E+02  0.212569975E+02  0.211994969E+01
   H  0.130931661E+02  0.205605181E+02  0.627906741E+01
   H -0.240655506E+02 -0.422809079E+01  0.239384114E+01
   H  0.268609751E+02 -0.373904848E+01  0.235371537E+01
  Xx  0.500601224E+03  0.978136641E+03 -0.107804587E+04
    11
 # iter = 59250  time[fs]=59.25000
   N -0.279322318E+01 -0.233709699E+01  0.250694301E+01
   N  0.290781466E+01 -0.217330056E+01  0.249819631E+01
   C -0.111695109E+01  0.211828828E+01  0.250056679E+01
   C -0.646668141E+03 -0.126395867E+04 -0.191341484E+04
   C -0.209084125E+01 -0.143246805E+01  0.249166642E+01
   C  0.199546420E+01 -0.116103681E+01  0.249360625E+01
   H -0.121927586E+02  0.213574712E+02  0.211739749E+01
   H  0.131559787E+02  0.206566385E+02  0.629840194E+01
   H -0.241799861E+02 -0.425271105E+01  0.239320674E+01
   H  0.269854025E+02 -0.376045063E+01  0.235252071E+01
  Xx  0.502733071E+03  0.982302546E+03 -0.108265381E+04
    11
 # iter = 59500  time[fs]=59.50000
   N -0.280510764E+01 -0.234267403E+01  0.250719768E+01
   N  0.291607921E+01 -0.217581480E+01  0.249804223E+01
   C -0.112019859E+01  0.212236687E+01  0.250040748E+01
   C -0.649417057E+03 -0.126933118E+04 -0.192155047E+04
   C -0.209285979E+01 -0.144187882E+01  0.249161832E+01
   C  0.200384242E+01 -0.117225609E+01  0.249352990E+01
   H -0.122509576E+02  0.214579893E+02  0.211484278E+01
   H  0.132188180E+02  0.207527944E+02  0.631774536E+01
   H -0.242944660E+02 -0.427734908E+01  0.239257235E+01
   H  0.271098655E+02 -0.378186722E+01  0.235132493E+01
  Xx  0.504864917E+03  0.986468451E+03 -0.108726175E+04
    11
 # iter = 59750  time[fs]=59.75000
   N -0.281724025E+01 -0.234857823E+01  0.250744585E+01
   N  0.292421028E+01 -0.217824219E+01  0.249788424E+01
   C -0.112343944E+01  0.212642791E+01  0.250024329E+01
   C -0.652165973E+03 -0.127470369E+04 -0.192968609E+04
   C -0.209453802E+01 -0.145089098E+01  0.249156055E+01
   C  0.201244947E+01 -0.118369340E+01  0.249347312E+01
   H -0.123091832E+02  0.215585518E+02  0.211228584E+01
   H  0.132816840E+02  0.208489858E+02  0.633709766E+01
   H -0.244089903E+02 -0.430200487E+01  0.239193795E+01
   H  0.272343640E+02 -0.380329824E+01  0.235012804E+01
  Xx  0.506996763E+03  0.990634356E+03 -0.109186969E+04
    11
 # iter = 60000  time[fs]=60.00000
   N -0.282957048E+01 -0.235483730E+01  0.250768228E+01
   N  0.293226009E+01 -0.218053729E+01  0.249773977E+01
   C -0.112670796E+01  0.213053054E+01  0.250008517E+01
   C -0.654914889E+03 -0.128007620E+04 -0.193782172E+04
   C -0.209593924E+01 -0.145948264E+01  0.249151357E+01
   C  0.202126545E+01 -0.119537341E+01  0.249339763E+01
   H -0.123674355E+02  0.216591588E+02  0.210972668E+01
   H  0.133445766E+02  0.209452127E+02  0.635645884E+01
   H -0.245235590E+02 -0.432667842E+01  0.239130356E+01
   H  0.273588981E+02 -0.382474369E+01  0.234893005E+01
  Xx  0.509128609E+03  0.994800261E+03 -0.109647763E+04
