     5
 # iter =     0  time[fs]= 0.00000
   C -0.602596000E+00  0.000000000E+00  0.514600000E-02
   C  0.602596000E+00  0.000000000E+00  0.514600000E-02
   H -0.166960110E+01  0.000000000E+00  0.485300000E-02
   H  0.166960110E+01  0.000000000E+00  0.485300000E-02
   H  0.113609900E+01  0.500000000E+01  0.499900000E-02
     5
 # iter =   500  time[fs]= 0.50000
   C -0.602405117E+00  0.629764537E-05  0.512431459E-02
   C  0.602407520E+00  0.835886673E-05  0.512410274E-02
   H -0.166932394E+01 -0.900035431E-04  0.485719576E-02
   H  0.166928855E+01 -0.154359659E-03  0.485716201E-02
   H  0.113606584E+01  0.474992774E+01  0.499911291E-02
     5
 # iter =  1000  time[fs]= 1.00000
   C -0.601839525E+00  0.318669577E-04  0.505945989E-02
   C  0.601853756E+00  0.426111809E-04  0.505859818E-02
   H -0.166850786E+01 -0.361974191E-03  0.486977545E-02
   H  0.166837649E+01 -0.627916536E-03  0.486959647E-02
   H  0.113595821E+01  0.449970119E+01  0.499947010E-02
     5
 # iter =  1500  time[fs]= 1.50000
   C -0.600923972E+00  0.785080998E-04  0.495204750E-02
   C  0.600960080E+00  0.105837527E-03  0.495009346E-02
   H -0.166720961E+01 -0.823180641E-03  0.489055307E-02
   H  0.166692178E+01 -0.145660914E-02  0.489007546E-02
   H  0.113575502E+01  0.424928007E+01  0.500009385E-02
     5
 # iter =  2000  time[fs]= 2.00000
   C -0.599695948E+00  0.145610585E-03  0.480313645E-02
   C  0.599762695E+00  0.198443611E-03  0.479953436E-02
   H -0.166550509E+01 -0.148363780E-02  0.491908842E-02
   H  0.166501597E+01 -0.268150738E-02  0.491807623E-02
   H  0.113543659E+01  0.399864273E+01  0.500100652E-02
     5
 # iter =  2500  time[fs]= 2.50000
   C -0.598204337E+00  0.233040273E-03  0.461401283E-02
   C  0.598308551E+00  0.321397758E-03  0.460809946E-02
   H -0.166349398E+01 -0.234829694E-02  0.495572561E-02
   H  0.166278742E+01 -0.434278677E-02  0.495396886E-02
   H  0.113497356E+01  0.374774345E+01  0.500222456E-02
     5
 # iter =  3000  time[fs]= 3.00000
   C -0.596509836E+00  0.340648674E-03  0.438621704E-02
   C  0.596655224E+00  0.476997198E-03  0.437729270E-02
   H -0.166129547E+01 -0.341402927E-02  0.500069295E-02
   H  0.166039722E+01 -0.647156281E-02  0.499810585E-02
   H  0.113434270E+01  0.349657536E+01  0.500377023E-02
     5
 # iter =  3500  time[fs]= 3.50000
   C -0.594681766E+00  0.467595228E-03  0.412173226E-02
   C  0.594865411E+00  0.665629615E-03  0.410900425E-02
   H -0.165904180E+01 -0.468048719E-02  0.505252766E-02
   H  0.165805290E+01 -0.910961829E-02  0.504928911E-02
   H  0.113351961E+01  0.324512903E+01  0.500566226E-02
     5
 # iter =  4000  time[fs]= 4.00000
   C -0.592794379E+00  0.607308017E-03  0.382290795E-02
   C  0.592998061E+00  0.880312991E-03  0.380537335E-02
   H -0.165688690E+01 -0.614252913E-02  0.511054158E-02
   H  0.165603499E+01 -0.122570238E-01  0.510686029E-02
   H  0.113251536E+01  0.299348448E+01  0.500794859E-02
     5
 # iter =  4500  time[fs]= 4.50000
   C -0.590920481E+00  0.748645379E-03  0.349243849E-02
   C  0.591091339E+00  0.110346318E-02  0.346871222E-02
   H -0.165502573E+01 -0.778009867E-02  0.517437600E-02
   H  0.165478549E+01 -0.158391993E-01  0.517091942E-02
   H  0.113141406E+01  0.274183228E+01  0.501083886E-02
     5
 # iter =  5000  time[fs]= 5.00000
   C -0.589120718E+00  0.861624269E-03  0.313339477E-02
   C  0.589145399E+00  0.129137885E-02  0.310143412E-02
   H -0.165374048E+01 -0.952229412E-02  0.524321603E-02
   H  0.165494722E+01 -0.195083492E-01  0.524208567E-02
   H  0.113049518E+01  0.249066006E+01  0.501503887E-02
     5
 # iter =  5500  time[fs]= 5.50000
   C -0.587477926E+00  0.878872720E-03  0.274898065E-02
   C  0.587170946E+00  0.131469596E-02  0.270602770E-02
   H -0.165337339E+01 -0.110904557E-01  0.531577746E-02
   H  0.165696772E+01 -0.225112857E-01  0.532040118E-02
   H  0.113044581E+01  0.224120789E+01  0.502266772E-02
     5
 # iter =  6000  time[fs]= 6.00000
   C -0.586451169E+00  0.772696625E-03  0.234118831E-02
   C  0.585655830E+00  0.105053696E-02  0.228461819E-02
   H -0.165425149E+01 -0.123466388E-01  0.539155565E-02
   H  0.166022930E+01 -0.245955158E-01  0.540310648E-02
   H  0.113192080E+01  0.199526952E+01  0.503715052E-02
     5
 # iter =  6500  time[fs]= 6.50000
   C -0.586676462E+00  0.692608613E-03  0.191082599E-02
   C  0.585510415E+00  0.991896923E-03  0.184231564E-02
   H -0.165645016E+01 -0.140722667E-01  0.547054315E-02
   H  0.166421111E+01 -0.278747242E-01  0.548652134E-02
   H  0.113313262E+01  0.174880181E+01  0.505290498E-02
     5
 # iter =  7000  time[fs]= 7.00000
   C -0.587832569E+00  0.582992649E-03  0.146423163E-02
   C  0.586224230E+00  0.106647610E-02  0.138272297E-02
   H -0.165982434E+01 -0.156706350E-01  0.555253037E-02
   H  0.167073158E+01 -0.316594778E-01  0.557915324E-02
   H  0.113324166E+01  0.150092761E+01  0.506742859E-02
     5
 # iter =  7500  time[fs]= 7.50000
   C -0.590009310E+00  0.406982314E-03  0.100530126E-02
   C  0.587982944E+00  0.139485380E-02  0.910353871E-03
   H -0.166477108E+01 -0.169991435E-01  0.563958013E-02
   H  0.167950926E+01 -0.366489312E-01  0.568004939E-02
   H  0.113150017E+01  0.125048951E+01  0.507848946E-02
     5
 # iter =  8000  time[fs]= 8.00000
   C -0.593443991E+00  0.188083673E-03  0.538170682E-03
   C  0.591241892E+00  0.215340216E-02  0.430274854E-03
   H -0.167118625E+01 -0.183677291E-01  0.573522091E-02
   H  0.168999045E+01 -0.446027235E-01  0.579717500E-02
   H  0.112657020E+01  0.997659173E+00  0.507270926E-02
     5
 # iter =  8500  time[fs]= 8.50000
   C -0.597855043E+00 -0.104213756E-03  0.677696183E-04
   C  0.595351357E+00  0.269878659E-02 -0.548494672E-04
   H -0.167854384E+01 -0.199831073E-01  0.583040456E-02
   H  0.170279748E+01 -0.572651682E-01  0.591907239E-02
   H  0.112157405E+01  0.752409612E+00  0.509377367E-02
     5
 # iter =  9000  time[fs]= 9.00000
   C -0.603026424E+00 -0.512910382E-03 -0.401372939E-03
   C  0.598807398E+00  0.133162407E-02 -0.554910779E-03
   H -0.168668789E+01 -0.212859030E-01  0.592712930E-02
   H  0.171945633E+01 -0.759743424E-01  0.604707194E-02
   H  0.112988185E+01  0.535854518E+00  0.532368352E-02
     5
 # iter =  9500  time[fs]= 9.50000
   C -0.608644560E+00 -0.950020525E-03 -0.864271127E-03
   C  0.598159415E+00 -0.452457790E-02 -0.110515966E-02
   H -0.169536635E+01 -0.225433999E-01  0.602313573E-02
   H  0.174131810E+01 -0.103359008E+00  0.616892399E-02
   H  0.118711764E+01  0.381879837E+00  0.627510118E-02
     5
 # iter = 10000  time[fs]=10.00000
   C -0.614404074E+00 -0.144309699E-02 -0.131697995E-02
   C  0.590976306E+00 -0.148978287E-01 -0.173284872E-02
   H -0.170419837E+01 -0.240628312E-01  0.610418513E-02
   H  0.177272796E+01 -0.143444559E+00  0.622647353E-02
   H  0.131468433E+01  0.297159026E+00  0.845097597E-02
     5
 # iter = 10500  time[fs]=10.50000
   C -0.620341016E+00 -0.198139483E-02 -0.175628908E-02
   C  0.579755986E+00 -0.273094853E-01 -0.240791194E-02
   H -0.171275262E+01 -0.255150143E-01  0.617555822E-02
   H  0.181811257E+01 -0.204789696E+00  0.608721219E-02
   H  0.147918407E+01  0.261543113E+00  0.116989444E-01
     5
 # iter = 11000  time[fs]=11.00000
   C -0.626482979E+00 -0.248144670E-02 -0.217672173E-02
   C  0.567632737E+00 -0.401433994E-01 -0.308251155E-02
   H -0.172073855E+01 -0.268475853E-01  0.622692531E-02
   H  0.187969701E+01 -0.298501101E+00  0.546851843E-02
   H  0.164276846E+01  0.266899973E+00  0.158027295E-01
     5
 # iter = 11500  time[fs]=11.50000
   C -0.632891424E+00 -0.300268898E-02 -0.257680337E-02
   C  0.556256228E+00 -0.527913901E-01 -0.372026264E-02
   H -0.172788839E+01 -0.279203049E-01  0.626373718E-02
   H  0.194856496E+01 -0.420846219E+00  0.417695667E-02
   H  0.179650663E+01  0.303645475E+00  0.206190899E-01
     5
 # iter = 12000  time[fs]=12.00000
   C -0.639554837E+00 -0.346307897E-02 -0.295019504E-02
   C  0.546306395E+00 -0.652499343E-01 -0.430965429E-02
   H -0.173410971E+01 -0.288369855E-01  0.625801680E-02
   H  0.201447637E+01 -0.556377500E+00  0.246895995E-02
   H  0.194378053E+01  0.355884988E+00  0.258054507E-01
     5
 # iter = 12500  time[fs]=12.50000
   C -0.646427428E+00 -0.393253960E-02 -0.329231227E-02
   C  0.538131037E+00 -0.772124866E-01 -0.484548777E-02
   H -0.173951161E+01 -0.291729366E-01  0.625492507E-02
   H  0.207476587E+01 -0.697175517E+00  0.520975711E-03
   H  0.208404685E+01  0.413418979E+00  0.310917364E-01
     5
 # iter = 13000  time[fs]=13.00000
   C -0.653344844E+00 -0.436016292E-02 -0.359835051E-02
   C  0.531644278E+00 -0.886909863E-01 -0.531726242E-02
   H -0.174426404E+01 -0.297283997E-01  0.619256275E-02
   H  0.212910280E+01 -0.838424013E+00 -0.155078059E-02
   H  0.221760825E+01  0.471397263E+00  0.363468132E-01
     5
 # iter = 13500  time[fs]=13.50000
   C -0.660123081E+00 -0.482791845E-02 -0.387083639E-02
   C  0.526581399E+00 -0.998742399E-01 -0.572680624E-02
   H -0.174849848E+01 -0.294070472E-01  0.613253147E-02
   H  0.217749561E+01 -0.976625356E+00 -0.363354968E-02
   H  0.234602200E+01  0.527872932E+00  0.414908965E-01
     5
 # iter = 14000  time[fs]=14.00000
   C -0.666786630E+00 -0.526098925E-02 -0.410120686E-02
   C  0.523196293E+00 -0.110845588E+00 -0.607361443E-02
   H -0.175219945E+01 -0.290328026E-01  0.604099878E-02
   H  0.221909482E+01 -0.111220712E+01 -0.576532131E-02
   H  0.246924186E+01  0.583948209E+00  0.465420010E-01
     5
 # iter = 14500  time[fs]=14.50000
   C -0.673086405E+00 -0.568621496E-02 -0.428963449E-02
   C  0.520826984E+00 -0.121523895E+00 -0.635744597E-02
   H -0.175529043E+01 -0.281452090E-01  0.591060497E-02
   H  0.225703553E+01 -0.124378756E+01 -0.788582911E-02
   H  0.258747834E+01  0.636684025E+00  0.514764405E-01
     5
 # iter = 15000  time[fs]=15.00000
   C -0.679114070E+00 -0.613845302E-02 -0.443223285E-02
   C  0.519881070E+00 -0.131933650E+00 -0.657845601E-02
   H -0.175804154E+01 -0.269670294E-01  0.575479834E-02
   H  0.229096135E+01 -0.137360542E+01 -0.100067121E-01
   H  0.269966021E+01  0.687467595E+00  0.562688779E-01
     5
 # iter = 15500  time[fs]=15.50000
   C -0.684563762E+00 -0.655527223E-02 -0.453335528E-02
   C  0.519705369E+00 -0.142214269E+00 -0.673195891E-02
   H -0.176055722E+01 -0.256097144E-01  0.557485123E-02
   H  0.232200869E+01 -0.149996206E+01 -0.121341118E-01
   H  0.280751104E+01  0.735504038E+00  0.609434285E-01
     5
 # iter = 16000  time[fs]=16.00000
   C -0.689320012E+00 -0.691307270E-02 -0.459460580E-02
   C  0.520182019E+00 -0.152544321E+00 -0.681830519E-02
   H -0.176319381E+01 -0.241814509E-01  0.539040150E-02
   H  0.234997989E+01 -0.162311330E+01 -0.142749370E-01
   H  0.291199311E+01  0.781769299E+00  0.655353839E-01
     5
 # iter = 16500  time[fs]=16.50000
   C -0.693631874E+00 -0.728984730E-02 -0.460848035E-02
   C  0.521810627E+00 -0.162977011E+00 -0.684566203E-02
   H -0.176610739E+01 -0.223551969E-01  0.518761430E-02
   H  0.237414439E+01 -0.174441053E+01 -0.164509748E-01
   H  0.301293543E+01  0.827711470E+00  0.700709415E-01
     5
 # iter = 17000  time[fs]=17.00000
   C -0.697264219E+00 -0.772048044E-02 -0.457592492E-02
   C  0.524179867E+00 -0.173564293E+00 -0.681642181E-02
   H -0.176939766E+01 -0.200146104E-01  0.494962568E-02
   H  0.239499830E+01 -0.186357993E+01 -0.186380730E-01
   H  0.311076860E+01  0.873036466E+00  0.745544419E-01
     5
 # iter = 17500  time[fs]=17.50000
   C -0.699759894E+00 -0.820320197E-02 -0.449729275E-02
   C  0.526616059E+00 -0.184385137E+00 -0.673030379E-02
   H -0.177320602E+01 -0.173288351E-01  0.467530964E-02
   H  0.241335845E+01 -0.198008294E+01 -0.207999298E-01
   H  0.320616290E+01  0.917195314E+00  0.789918762E-01
     5
 # iter = 18000  time[fs]=18.00000
   C -0.701024973E+00 -0.876952442E-02 -0.437466621E-02
   C  0.528874653E+00 -0.195508688E+00 -0.659243917E-02
   H -0.177729999E+01 -0.142822473E-01  0.435895678E-02
   H  0.242919425E+01 -0.209381582E+01 -0.229403713E-01
   H  0.329931482E+01  0.960286478E+00  0.833671579E-01
     5
 # iter = 18500  time[fs]=18.50000
   C -0.701201816E+00 -0.943705488E-02 -0.420944711E-02
   C  0.531172289E+00 -0.206941102E+00 -0.640009221E-02
   H -0.178167681E+01 -0.107284651E-01  0.400411796E-02
   H  0.244314439E+01 -0.220555467E+01 -0.250642688E-01
   H  0.339091999E+01  0.100281973E+01  0.877136184E-01
     5
 # iter = 19000  time[fs]=19.00000
   C -0.700591409E+00 -0.102190394E-01 -0.400583351E-02
   C  0.533876584E+00 -0.218598808E+00 -0.615560331E-02
   H -0.178602300E+01 -0.654000037E-02  0.364114502E-02
   H  0.245502091E+01 -0.231559879E+01 -0.271934874E-01
   H  0.348113711E+01  0.104521825E+01  0.920484881E-01
     5
 # iter = 19500  time[fs]=19.50000
   C -0.699350448E+00 -0.111327786E-01 -0.376610126E-02
   C  0.537258984E+00 -0.230511208E+00 -0.586049297E-02
   H -0.179008089E+01 -0.156136815E-02  0.327616662E-02
   H  0.246506486E+01 -0.242407394E+01 -0.293444446E-01
   H  0.357011696E+01  0.108761986E+01  0.963816158E-01
     5
 # iter = 20000  time[fs]=20.00000
   C -0.697431952E+00 -0.121768583E-01 -0.349503917E-02
   C  0.541132740E+00 -0.242619152E+00 -0.551558617E-02
   H -0.179335901E+01  0.411316692E-02  0.291961357E-02
   H  0.247332739E+01 -0.253101063E+01 -0.315163885E-01
   H  0.365802037E+01  0.113000227E+01  0.100716323E+00
     5
 # iter = 20500  time[fs]=20.50000
   C -0.694617105E+00 -0.133621944E-01 -0.319639639E-02
   C  0.545120437E+00 -0.254920785E+00 -0.511940347E-02
   H -0.179542426E+01  0.104140074E-01  0.257508789E-02
   H  0.248024800E+01 -0.263670318E+01 -0.337021684E-01
   H  0.374516442E+01  0.117223308E+01  0.105054210E+00
     5
 # iter = 21000  time[fs]=21.00000
   C -0.690736012E+00 -0.146879125E-01 -0.287419797E-02
   C  0.548903288E+00 -0.267389248E+00 -0.467387267E-02
   H -0.179578872E+01  0.171447857E-01  0.223294277E-02
   H  0.248599368E+01 -0.274101787E+01 -0.359099835E-01
   H  0.383154290E+01  0.121425960E+01  0.109387801E+00
     5
 # iter = 21500  time[fs]=21.50000
   C -0.685699757E+00 -0.161582776E-01 -0.253238921E-02
   C  0.552303612E+00 -0.279957767E+00 -0.418214100E-02
   H -0.179397025E+01  0.242685038E-01  0.189893903E-02
   H  0.249040825E+01 -0.284390184E+01 -0.381318517E-01
   H  0.391704925E+01  0.125611564E+01  0.113714135E+00
     5
 # iter = 22000  time[fs]=22.00000
   C -0.679491279E+00 -0.177729973E-01 -0.217681971E-02
   C  0.555277137E+00 -0.292562429E+00 -0.364530708E-02
   H -0.178987195E+01  0.317827952E-01  0.158557359E-02
   H  0.249382431E+01 -0.294564251E+01 -0.403632323E-01
   H  0.400201453E+01  0.129793282E+01  0.118050947E+00
     5
 # iter = 22500  time[fs]=22.50000
   C -0.672228720E+00 -0.195235141E-01 -0.181046060E-02
   C  0.557891883E+00 -0.305064112E+00 -0.306864279E-02
   H -0.178311578E+01  0.397009860E-01  0.129336925E-02
   H  0.249632429E+01 -0.304630924E+01 -0.426082660E-01
   H  0.408649393E+01  0.133973153E+01  0.122393754E+00
     5
 # iter = 23000  time[fs]=23.00000
   C -0.664054960E+00 -0.214108551E-01 -0.143682380E-02
   C  0.560275953E+00 -0.317374727E+00 -0.245943159E-02
   H -0.177342811E+01  0.481427857E-01  0.103045493E-02
   H  0.249809625E+01 -0.314601120E+01 -0.448650581E-01
   H  0.417064161E+01  0.138154274E+01  0.126736660E+00
     5
 # iter = 23500  time[fs]=23.50000
   C -0.655144499E+00 -0.234285999E-01 -0.105745726E-02
   C  0.562617002E+00 -0.329467480E+00 -0.182505777E-02
   H -0.176088427E+01  0.573074211E-01  0.795262428E-03
   H  0.249934959E+01 -0.324494328E+01 -0.471348047E-01
   H  0.425460999E+01  0.142340252E+01  0.131086592E+00
     5
 # iter = 24000  time[fs]=24.00000
   C -0.645682178E+00 -0.255528958E-01 -0.673858190E-03
   C  0.565076063E+00 -0.341306586E+00 -0.117318257E-02
   H -0.174550961E+01  0.672452275E-01  0.587361996E-03
   H  0.250008091E+01 -0.334308738E+01 -0.494183914E-01
   H  0.433849207E+01  0.146534642E+01  0.135446173E+00
     5
 # iter = 24500  time[fs]=24.50000
   C -0.635838945E+00 -0.277540032E-01 -0.288059659E-03
   C  0.567797690E+00 -0.352873351E+00 -0.511507573E-03
   H -0.172750230E+01  0.779775566E-01  0.399506372E-03
   H  0.250024632E+01 -0.344038726E+01 -0.517153445E-01
   H  0.442227639E+01  0.150737181E+01  0.139817085E+00
     5
 # iter = 25000  time[fs]=25.00000
   C -0.625729650E+00 -0.300107364E-01  0.973345839E-04
   C  0.570838903E+00 -0.364141787E+00  0.154124016E-03
   H -0.170739516E+01  0.896297647E-01  0.225510890E-03
   H  0.249996702E+01 -0.353701732E+01 -0.540318388E-01
   H  0.450599982E+01  0.154953906E+01  0.144196162E+00
     5
 # iter = 25500  time[fs]=25.50000
   C -0.615417809E+00 -0.323136250E-01  0.479903417E-03
   C  0.574178761E+00 -0.375075593E+00  0.817049040E-03
   H -0.168593197E+01  0.102278404E+00  0.596885769E-04
   H  0.249933914E+01 -0.363306933E+01 -0.563686303E-01
   H  0.458972054E+01  0.159185006E+01  0.148578856E+00
     5
 # iter = 26000  time[fs]=26.00000
   C -0.604923647E+00 -0.346364970E-01  0.856051170E-03
   C  0.577774092E+00 -0.385625295E+00  0.147263204E-02
   H -0.166394469E+01  0.115902387E+00 -0.102516091E-03
   H  0.249843351E+01 -0.372864389E+01 -0.587269708E-01
   H  0.467344206E+01  0.163426196E+01  0.152961832E+00
     5
 # iter = 26500  time[fs]=26.50000
   C -0.594259846E+00 -0.369702012E-01  0.122392083E-02
   C  0.581545412E+00 -0.395743234E+00  0.211453343E-02
   H -0.164238101E+01  0.130642861E+00 -0.267609286E-03
   H  0.249726932E+01 -0.382379194E+01 -0.611034862E-01
   H  0.475711225E+01  0.167679862E+01  0.157344912E+00
     5
 # iter = 27000  time[fs]=27.00000
   C -0.583438071E+00 -0.393022313E-01  0.158273199E-02
   C  0.585428573E+00 -0.405401492E+00  0.273634408E-02
   H -0.162222689E+01  0.146531138E+00 -0.447435213E-03
   H  0.249586765E+01 -0.391857929E+01 -0.635038062E-01
   H  0.484071396E+01  0.171942837E+01  0.161722925E+00
     5
 # iter = 27500  time[fs]=27.50000
   C -0.572473439E+00 -0.416124312E-01  0.192768619E-02
   C  0.589348106E+00 -0.414593690E+00  0.333289761E-02
   H -0.160433745E+01  0.163560139E+00 -0.638480043E-03
   H  0.249427288E+01 -0.401315445E+01 -0.659336112E-01
   H  0.492434460E+01  0.176211360E+01  0.166093624E+00
     5
 # iter = 28000  time[fs]=28.00000
   C -0.561443238E+00 -0.438919506E-01  0.225565179E-02
   C  0.593275309E+00 -0.423356429E+00  0.389834200E-02
   H -0.158927694E+01  0.181892038E+00 -0.840024161E-03
   H  0.249252718E+01 -0.410758367E+01 -0.683867868E-01
   H  0.500804334E+01  0.180486942E+01  0.170460477E+00
     5
 # iter = 28500  time[fs]=28.50000
   C -0.550481880E+00 -0.460950498E-01  0.256315870E-02
   C  0.597254702E+00 -0.431763615E+00  0.442948637E-02
   H -0.157719286E+01  0.201483746E+00 -0.104896190E-02
   H  0.249067372E+01 -0.420183680E+01 -0.708618192E-01
   H  0.509176323E+01  0.184776934E+01  0.174821552E+00
     5
 # iter = 29000  time[fs]=29.00000
   C -0.539766411E+00 -0.481818875E-01  0.284687245E-02
   C  0.601331743E+00 -0.439893698E+00  0.492274639E-02
   H -0.156775517E+01  0.222273193E+00 -0.126233556E-02
   H  0.248869186E+01 -0.429592189E+01 -0.733639829E-01
   H  0.517551910E+01  0.189082253E+01  0.179169853E+00
     5
 # iter = 29500  time[fs]=29.50000
   C -0.529493293E+00 -0.500967139E-01  0.310376226E-02
   C  0.605593681E+00 -0.447861181E+00  0.537472661E-02
   H -0.156036983E+01  0.244229725E+00 -0.147955124E-02
   H  0.248653882E+01 -0.438986312E+01 -0.758942790E-01
   H  0.525931630E+01  0.193396491E+01  0.183503477E+00
     5
 # iter = 30000  time[fs]=30.00000
   C -0.519876742E+00 -0.517684064E-01  0.333076575E-02
   C  0.610140620E+00 -0.455783353E+00  0.578243376E-02
   H -0.155424901E+01  0.267061071E+00 -0.169218995E-02
   H  0.248427039E+01 -0.448366229E+01 -0.784518188E-01
   H  0.534308328E+01  0.197719509E+01  0.187820117E+00
     5
 # iter = 30500  time[fs]=30.50000
   C -0.511116809E+00 -0.531317701E-01  0.352569199E-02
   C  0.615051540E+00 -0.463774875E+00  0.614340478E-02
   H -0.154849402E+01  0.290510047E+00 -0.189983289E-02
   H  0.248194511E+01 -0.457736390E+01 -0.810367657E-01
   H  0.542687404E+01  0.202051350E+01  0.192122296E+00
     5
 # iter = 31000  time[fs]=31.00000
   C -0.503355999E+00 -0.540977895E-01  0.368600029E-02
   C  0.620395031E+00 -0.471971749E+00  0.645475473E-02
   H -0.154230011E+01  0.314280011E+00 -0.209878017E-02
   H  0.247958313E+01 -0.467102283E+01 -0.836477598E-01
   H  0.551078026E+01  0.206390352E+01  0.196409386E+00
     5
 # iter = 31500  time[fs]=31.50000
   C -0.496678325E+00 -0.545809312E-01  0.380813537E-02
   C  0.626179500E+00 -0.480494573E+00  0.671492666E-02
   H -0.153504863E+01  0.337729425E+00 -0.227425970E-02
   H  0.247717461E+01 -0.476461484E+01 -0.862865096E-01
   H  0.559476676E+01  0.210736098E+01  0.200676359E+00
     5
 # iter = 32000  time[fs]=32.00000
   C -0.491054222E+00 -0.545465978E-01  0.389012063E-02
   C  0.632317014E+00 -0.489442484E+00  0.692286273E-02
   H -0.152616076E+01  0.360573740E+00 -0.241544524E-02
   H  0.247474489E+01 -0.485815650E+01 -0.889569222E-01
   H  0.567882096E+01  0.215092588E+01  0.204917789E+00
     5
 # iter = 32500  time[fs]=32.50000
   C -0.486371502E+00 -0.539684954E-01  0.393271766E-02
   C  0.638666458E+00 -0.498884893E+00  0.707687747E-02
   H -0.151524233E+01  0.382449022E+00 -0.252426537E-02
   H  0.247232724E+01 -0.495170779E+01 -0.916577078E-01
   H  0.576296515E+01  0.219461644E+01  0.209138192E+00
     5
 # iter = 33000  time[fs]=33.00000
   C -0.482467110E+00 -0.528435012E-01  0.393494671E-02
   C  0.645049134E+00 -0.508860154E+00  0.717575674E-02
   H -0.150218882E+01  0.402926806E+00 -0.259161229E-02
   H  0.246990794E+01 -0.504524844E+01 -0.943831974E-01
   H  0.584721777E+01  0.223842707E+01  0.213339688E+00
     5
 # iter = 33500  time[fs]=33.50000
   C -0.479150132E+00 -0.512117419E-01  0.389524286E-02
   C  0.651251857E+00 -0.519373598E+00  0.721955474E-02
   H -0.148690244E+01  0.422043456E+00 -0.260803849E-02
   H  0.246747463E+01 -0.513877582E+01 -0.971364508E-01
   H  0.593154454E+01  0.228231612E+01  0.217517429E+00
     5
 # iter = 34000  time[fs]=34.00000
   C -0.476218349E+00 -0.491200374E-01  0.381337909E-02
   C  0.657100249E+00 -0.530400599E+00  0.720898797E-02
   H -0.146967783E+01  0.439735250E+00 -0.256740157E-02
   H  0.246503658E+01 -0.523235720E+01 -0.999205457E-01
   H  0.601592183E+01  0.232625595E+01  0.221669471E+00
     5
 # iter = 34500  time[fs]=34.50000
   C -0.473450933E+00 -0.466324513E-01  0.368861079E-02
   C  0.662425617E+00 -0.541890025E+00  0.714461274E-02
   H -0.145097956E+01  0.456012464E+00 -0.245793460E-02
   H  0.246261828E+01 -0.532597782E+01 -0.102730303E+00
   H  0.610038085E+01  0.237024338E+01  0.225795406E+00
     5
 # iter = 35000  time[fs]=35.00000
   C -0.470631936E+00 -0.438241271E-01  0.351815605E-02
   C  0.667038417E+00 -0.553756620E+00  0.702908837E-02
   H -0.143124924E+01  0.471092877E+00 -0.226761459E-02
   H  0.246022736E+01 -0.541958944E+01 -0.105563074E+00
   H  0.618492216E+01  0.241430486E+01  0.229896751E+00
     5
 # iter = 35500  time[fs]=35.50000
   C -0.467547778E+00 -0.407808944E-01  0.330020580E-02
   C  0.670801933E+00 -0.565891333E+00  0.686495493E-02
   H -0.141121932E+01  0.485149743E+00 -0.197569818E-02
   H  0.245784023E+01 -0.551322215E+01 -0.108420395E+00
   H  0.626950047E+01  0.245845456E+01  0.233974251E+00
     5
 # iter = 36000  time[fs]=36.00000
   C -0.463987343E+00 -0.376019284E-01  0.303329547E-02
   C  0.673584501E+00 -0.578150174E+00  0.665519643E-02
   H -0.139158898E+01  0.498437881E+00 -0.156705018E-02
   H  0.245543330E+01 -0.560689586E+01 -0.111301543E+00
   H  0.635412421E+01  0.250268386E+01  0.238027255E+00
     5
 # iter = 36500  time[fs]=36.50000
   C -0.459760967E+00 -0.343726488E-01  0.271722299E-02
   C  0.675255058E+00 -0.590370797E+00  0.640364167E-02
   H -0.137283872E+01  0.511227597E+00 -0.103599780E-02
   H  0.245303029E+01 -0.570061171E+01 -0.114201884E+00
   H  0.643882998E+01  0.254700028E+01  0.242055542E+00
     5
 # iter = 37000  time[fs]=37.00000
   C -0.454704365E+00 -0.312061925E-01  0.235458740E-02
   C  0.675738583E+00 -0.602384323E+00  0.611228425E-02
   H -0.135549139E+01  0.523899968E+00 -0.380139273E-03
   H  0.245066866E+01 -0.579439475E+01 -0.117122267E+00
   H  0.652358937E+01  0.259140161E+01  0.246059646E+00
     5
 # iter = 37500  time[fs]=37.50000
   C -0.448709576E+00 -0.282081010E-01  0.195225617E-02
   C  0.674972848E+00 -0.614020982E+00  0.578021834E-02
   H -0.133980019E+01  0.536797456E+00  0.380086518E-03
   H  0.244834580E+01 -0.588824636E+01 -0.120065573E+00
   H  0.660836468E+01  0.263584922E+01  0.250040788E+00
     5
 # iter = 38000  time[fs]=38.00000
   C -0.441718347E+00 -0.254415666E-01  0.152246469E-02
   C  0.672935047E+00 -0.625148069E+00  0.540455856E-02
   H -0.132580524E+01  0.550142943E+00  0.120094752E-02
   H  0.244603901E+01 -0.598215690E+01 -0.123029915E+00
   H  0.669318629E+01  0.268031813E+01  0.254000580E+00
     5
 # iter = 38500  time[fs]=38.50000
   C -0.433737532E+00 -0.229368707E-01  0.107861703E-02
   C  0.669686933E+00 -0.635704404E+00  0.498310665E-02
   H -0.131340606E+01  0.564118568E+00  0.204172115E-02
   H  0.244375207E+01 -0.607614051E+01 -0.126011505E+00
   H  0.677805529E+01  0.272482783E+01  0.257940978E+00
     5
 # iter = 39000  time[fs]=39.00000
   C -0.424786212E+00 -0.206823784E-01  0.632820136E-03
   C  0.665294059E+00 -0.645656715E+00  0.451499771E-02
   H -0.130238978E+01  0.578582916E+00  0.286219255E-02
   H  0.244149237E+01 -0.617020196E+01 -0.129008807E+00
   H  0.686292715E+01  0.276940294E+01  0.261858090E+00
     5
 # iter = 39500  time[fs]=39.50000
   C -0.414915944E+00 -0.186265937E-01  0.196896686E-03
   C  0.659866638E+00 -0.655002308E+00  0.399928330E-02
   H -0.129239483E+01  0.593218558E+00  0.362414805E-02
   H  0.243927158E+01 -0.626432810E+01 -0.132020817E+00
   H  0.694782599E+01  0.281405537E+01  0.265750921E+00
     5
 # iter = 40000  time[fs]=40.00000
   C -0.404210568E+00 -0.166975500E-01 -0.220073233E-03
   C  0.653551906E+00 -0.663786653E+00  0.343812868E-02
   H -0.128297184E+01  0.607812291E+00  0.429795474E-02
   H  0.243709156E+01 -0.635852279E+01 -0.135049681E+00
   H  0.703279375E+01  0.285877883E+01  0.269628740E+00
     5
 # iter = 40500  time[fs]=40.50000
   C -0.392791395E+00 -0.147858866E-01 -0.611075806E-03
   C  0.646501577E+00 -0.672053923E+00  0.283514867E-02
   H -0.127359137E+01  0.621885089E+00  0.486770007E-02
   H  0.243493324E+01 -0.645279395E+01 -0.138091966E+00
   H  0.711779723E+01  0.290354205E+01  0.273495835E+00
     5
 # iter = 41000  time[fs]=41.00000
   C -0.380808800E+00 -0.127763639E-01 -0.970348424E-03
   C  0.638912810E+00 -0.679862477E+00  0.219590957E-02
   H -0.126376609E+01  0.634961893E+00  0.531326279E-02
   H  0.243278507E+01 -0.654713209E+01 -0.141141546E+00
   H  0.720278870E+01  0.294831467E+01  0.277348841E+00
     5
 # iter = 41500  time[fs]=41.50000
   C -0.368457087E+00 -0.105526038E-01 -0.129365597E-02
   C  0.631028925E+00 -0.687330591E+00  0.152702505E-02
   H -0.125302735E+01  0.646869877E+00  0.561318653E-02
   H  0.243066007E+01 -0.664152233E+01 -0.144199826E+00
   H  0.728780214E+01  0.299310942E+01  0.281186718E+00
     5
 # iter = 42000  time[fs]=42.00000
   C -0.355963559E+00 -0.798700740E-02 -0.157803850E-02
   C  0.623087298E+00 -0.694563677E+00  0.833242507E-03
   H -0.124096443E+01  0.657317328E+00  0.577876796E-02
   H  0.242857310E+01 -0.673598653E+01 -0.147268844E+00
   H  0.737287572E+01  0.303795298E+01  0.285013054E+00
     5
 # iter = 42500  time[fs]=42.50000
   C -0.343594701E+00 -0.494526081E-02 -0.182154096E-02
   C  0.615362898E+00 -0.701704032E+00  0.123658036E-03
   H -0.122736569E+01  0.666194814E+00  0.579298739E-02
   H  0.242650595E+01 -0.683051403E+01 -0.150344234E+00
   H  0.745796747E+01  0.308285052E+01  0.288832584E+00
     5
 # iter = 43000  time[fs]=43.00000
   C -0.331642128E+00 -0.129692921E-02 -0.202290536E-02
   C  0.608142854E+00 -0.708938297E+00 -0.592947227E-03
   H -0.121209738E+01  0.673621626E+00  0.565232940E-02
   H  0.242445435E+01 -0.692506952E+01 -0.153418602E+00
   H  0.754305657E+01  0.312780590E+01  0.292647993E+00
     5
 # iter = 43500  time[fs]=43.50000
   C -0.320375604E+00  0.306846857E-02 -0.218271019E-02
   C  0.601694551E+00 -0.716433718E+00 -0.131030078E-02
   H -0.119519507E+01  0.679656835E+00  0.538266242E-02
   H  0.242242446E+01 -0.701968933E+01 -0.156490066E+00
   H  0.762817881E+01  0.317281122E+01  0.296460398E+00
     5
 # iter = 44000  time[fs]=44.00000
   C -0.310052645E+00  0.824799488E-02 -0.230378236E-02
   C  0.596291265E+00 -0.724398001E+00 -0.201778315E-02
   H -0.117690383E+01  0.684692312E+00  0.497104285E-02
   H  0.242040460E+01 -0.711437741E+01 -0.159563963E+00
   H  0.771333210E+01  0.321783389E+01  0.300271189E+00
     5
 # iter = 44500  time[fs]=44.50000
   C -0.300864878E+00  0.143073995E-01 -0.239434527E-02
   C  0.592109284E+00 -0.732985589E+00 -0.271054293E-02
   H -0.115775475E+01  0.688935197E+00  0.452554450E-02
   H  0.241840588E+01 -0.720908108E+01 -0.162637067E+00
   H  0.779847731E+01  0.326285846E+01  0.304082573E+00
     5
 # iter = 45000  time[fs]=45.00000
   C -0.292861569E+00  0.212048806E-01 -0.246309240E-02
   C  0.589176012E+00 -0.742264096E+00 -0.338244448E-02
   H -0.113842101E+01  0.692717855E+00  0.412365494E-02
   H  0.241642945E+01 -0.730381818E+01 -0.165699219E+00
   H  0.788362715E+01  0.330790161E+01  0.307897497E+00
     5
 # iter = 45500  time[fs]=45.50000
   C -0.285976682E+00  0.288003549E-01 -0.251661724E-02
   C  0.587414874E+00 -0.752277577E+00 -0.402732889E-02
   H -0.111961511E+01  0.696605293E+00  0.381080631E-02
   H  0.241444977E+01 -0.739861500E+01 -0.168750914E+00
   H  0.796882878E+01  0.335296772E+01  0.311719876E+00
     5
 # iter = 46000  time[fs]=46.00000
   C -0.280090053E+00  0.369080887E-01 -0.256047163E-02
   C  0.586714405E+00 -0.763062380E+00 -0.464289933E-02
   H -0.110215248E+01  0.701232232E+00  0.366410588E-02
   H  0.241246691E+01 -0.749341932E+01 -0.171792782E+00
   H  0.805405539E+01  0.339807333E+01  0.315552857E+00
     5
 # iter = 46500  time[fs]=46.50000
   C -0.275068808E+00  0.453117328E-01 -0.259411893E-02
   C  0.586943134E+00 -0.774640455E+00 -0.522334333E-02
   H -0.108657337E+01  0.707484928E+00  0.366680745E-02
   H  0.241050148E+01 -0.758824862E+01 -0.174820153E+00
   H  0.813927783E+01  0.344325427E+01  0.319397777E+00
     5
 # iter = 47000  time[fs]=47.00000
   C -0.270736151E+00  0.537346055E-01 -0.261550608E-02
   C  0.587949169E+00 -0.786987874E+00 -0.576317519E-02
   H -0.107327933E+01  0.716269142E+00  0.379151827E-02
   H  0.240855234E+01 -0.768315269E+01 -0.177833347E+00
   H  0.822452837E+01  0.348847616E+01  0.323254000E+00
     5
 # iter = 47500  time[fs]=47.50000
   C -0.266881062E+00  0.618557222E-01 -0.262585182E-02
   C  0.589534048E+00 -0.799985152E+00 -0.625746956E-02
   H -0.106250408E+01  0.728296488E+00  0.404990068E-02
   H  0.240660890E+01 -0.777808505E+01 -0.180830636E+00
   H  0.830979977E+01  0.353368149E+01  0.327122562E+00
     5
 # iter = 48000  time[fs]=48.00000
   C -0.263279943E+00  0.693559944E-01 -0.262869187E-02
   C  0.591441370E+00 -0.813442560E+00 -0.669592411E-02
   H -0.105419335E+01  0.744024175E+00  0.443915140E-02
   H  0.240466596E+01 -0.787303824E+01 -0.183808491E+00
   H  0.839505077E+01  0.357887957E+01  0.331010116E+00
     5
 # iter = 48500  time[fs]=48.50000
   C -0.259732600E+00  0.759777328E-01 -0.263330020E-02
   C  0.593399540E+00 -0.827153574E+00 -0.706559911E-02
   H -0.104804980E+01  0.763400290E+00  0.497265517E-02
   H  0.240271877E+01 -0.796804609E+01 -0.186766894E+00
   H  0.848030080E+01  0.362409586E+01  0.334919234E+00
     5
 # iter = 49000  time[fs]=49.00000
   C -0.256097689E+00  0.815627620E-01 -0.265751788E-02
   C  0.595170160E+00 -0.840942319E+00 -0.735031532E-02
   H -0.104360428E+01  0.785888474E+00  0.573207476E-02
   H  0.240078790E+01 -0.806307235E+01 -0.189706061E+00
   H  0.856559633E+01  0.366934427E+01  0.338846731E+00
     5
 # iter = 49500  time[fs]=49.50000
   C -0.252290569E+00  0.860550872E-01 -0.272158084E-02
   C  0.596579434E+00 -0.854685087E+00 -0.753256689E-02
   H -0.104030185E+01  0.810636876E+00  0.682489950E-02
   H  0.239887306E+01 -0.815812123E+01 -0.192623250E+00
   H  0.865089596E+01  0.371464013E+01  0.342795350E+00
     5
 # iter = 50000  time[fs]=50.00000
   C -0.248294713E+00  0.894614492E-01 -0.284236901E-02
   C  0.597492139E+00 -0.868251132E+00 -0.759669157E-02
   H -0.103732290E+01  0.836540489E+00  0.828875374E-02
   H  0.239693989E+01 -0.825323905E+01 -0.195515124E+00
   H  0.873617751E+01  0.375998685E+01  0.346769734E+00
     5
 # iter = 50500  time[fs]=50.50000
   C -0.244132596E+00  0.918191340E-01 -0.302848313E-02
   C  0.597819326E+00 -0.881498847E+00 -0.753539724E-02
   H -0.103376456E+01  0.862427857E+00  0.101422052E-01
   H  0.239499797E+01 -0.834838656E+01 -0.198380778E+00
   H  0.882148456E+01  0.380534741E+01  0.350770230E+00
     5
 # iter = 51000  time[fs]=51.00000
   C -0.239832065E+00  0.931771199E-01 -0.328018591E-02
   C  0.597516350E+00 -0.894277457E+00 -0.734867153E-02
   H -0.102890067E+01  0.887167306E+00  0.124127696E-01
   H  0.239306530E+01 -0.844353406E+01 -0.201221513E+00
   H  0.890680579E+01  0.385069076E+01  0.354796684E+00
     5
 # iter = 51500  time[fs]=51.50000
   C -0.235433261E+00  0.935532897E-01 -0.358642528E-02
   C  0.596533542E+00 -0.906392651E+00 -0.703883676E-02
   H -0.102191167E+01  0.909769089E+00  0.150151348E-01
   H  0.239112571E+01 -0.853872347E+01 -0.204036683E+00
   H  0.899209935E+01  0.389603490E+01  0.358850206E+00
     5
 # iter = 52000  time[fs]=52.00000
   C -0.230968130E+00  0.929395768E-01 -0.392326318E-02
   C  0.594842247E+00 -0.917654961E+00 -0.661944297E-02
   H -0.101206303E+01  0.929494595E+00  0.178194646E-01
   H  0.238917304E+01 -0.863393940E+01 -0.206823186E+00
   H  0.907739277E+01  0.394140498E+01  0.362933380E+00
     5
 # iter = 52500  time[fs]=52.50000
   C -0.226460887E+00  0.913046222E-01 -0.425355735E-02
   C  0.592451201E+00 -0.927896305E+00 -0.611893914E-02
   H -0.998865078E+00  0.945853567E+00  0.206818350E-01
   H  0.238721293E+01 -0.872916536E+01 -0.209584192E+00
   H  0.916271713E+01  0.398681243E+01  0.367047996E+00
     5
 # iter = 53000  time[fs]=53.00000
   C -0.221956148E+00  0.885979879E-01 -0.452666978E-02
   C  0.589383177E+00 -0.936953860E+00 -0.557472392E-02
   H -0.981807208E+00  0.958503385E+00  0.233853091E-01
   H  0.238524624E+01 -0.882445212E+01 -0.212321238E+00
   H  0.924804763E+01  0.403226230E+01  0.371191027E+00
     5
 # iter = 53500  time[fs]=53.50000
   C -0.217510297E+00  0.847796944E-01 -0.469493621E-02
   C  0.585735731E+00 -0.944771195E+00 -0.502143477E-02
   H -0.960590811E+00  0.967483712E+00  0.256944351E-01
   H  0.238327481E+01 -0.891976569E+01 -0.215034462E+00
   H  0.933336613E+01  0.407775157E+01  0.375360826E+00
     5
 # iter = 54000  time[fs]=54.00000
   C -0.213189881E+00  0.798381902E-01 -0.472675385E-02
   C  0.581629560E+00 -0.951341267E+00 -0.448600524E-02
   H -0.935062166E+00  0.972912609E+00  0.274831894E-01
   H  0.238129012E+01 -0.901509526E+01 -0.217725821E+00
   H  0.941869322E+01  0.412324796E+01  0.379559209E+00
     5
 # iter = 54500  time[fs]=54.50000
   C -0.209052757E+00  0.737950485E-01 -0.460956378E-02
   C  0.577191595E+00 -0.956686207E+00 -0.398323981E-02
   H -0.905312022E+00  0.974971437E+00  0.287171331E-01
   H  0.237929628E+01 -0.911049259E+01 -0.220394101E+00
   H  0.950403076E+01  0.416873408E+01  0.383784422E+00
     5
 # iter = 55000  time[fs]=55.00000
   C -0.205134240E+00  0.666896686E-01 -0.434785614E-02
   C  0.572557522E+00 -0.960889002E+00 -0.350911252E-02
   H -0.871654884E+00  0.974153802E+00  0.293664519E-01
   H  0.237729781E+01 -0.920594300E+01 -0.223045260E+00
   H  0.958935565E+01  0.421424127E+01  0.388037534E+00
     5
 # iter = 55500  time[fs]=55.50000
   C -0.201450959E+00  0.585755750E-01 -0.395619688E-02
   C  0.567834267E+00 -0.964012372E+00 -0.305879312E-02
   H -0.834611263E+00  0.970912581E+00  0.295161266E-01
   H  0.237528509E+01 -0.930142748E+01 -0.225677247E+00
   H  0.967469379E+01  0.425979039E+01  0.392320363E+00
     5
 # iter = 56000  time[fs]=56.00000
   C -0.197999129E+00  0.495242381E-01 -0.345581532E-02
   C  0.563125476E+00 -0.966141739E+00 -0.262575388E-02
   H -0.794965644E+00  0.965853067E+00  0.292864213E-01
   H  0.237326048E+01 -0.939699390E+01 -0.228295032E+00
   H  0.976005752E+01  0.430539748E+01  0.396627984E+00
     5
 # iter = 56500  time[fs]=56.50000
   C -0.194770433E+00  0.396205855E-01 -0.286969624E-02
   C  0.558542593E+00 -0.967395477E+00 -0.220056599E-02
   H -0.753604538E+00  0.959845505E+00  0.287699623E-01
   H  0.237122120E+01 -0.949264792E+01 -0.230900404E+00
   H  0.984541932E+01  0.435106194E+01  0.400959534E+00
     5
 # iter = 57000  time[fs]=57.00000
   C -0.191758375E+00  0.289711029E-01 -0.221988835E-02
   C  0.554192912E+00 -0.967878691E+00 -0.177719622E-02
   H -0.711516466E+00  0.953774873E+00  0.280778140E-01
   H  0.236916626E+01 -0.958840479E+01 -0.233498346E+00
   H  0.993080340E+01  0.439677700E+01  0.405312936E+00
     5
 # iter = 57500  time[fs]=57.50000
   C -0.188960205E+00  0.177103708E-01 -0.152906366E-02
   C  0.550191301E+00 -0.967731037E+00 -0.135146904E-02
   H -0.669700192E+00  0.948761992E+00  0.273313848E-01
   H  0.236709812E+01 -0.968427646E+01 -0.236090757E+00
   H  0.100162244E+02  0.444254182E+01  0.409686820E+00
     5
 # iter = 58000  time[fs]=58.00000
   C -0.186402164E+00  0.600093525E-02 -0.816584818E-03
   C  0.546665856E+00 -0.967130753E+00 -0.920354071E-03
   H -0.628932921E+00  0.946109540E+00  0.266111787E-01
   H  0.236501418E+01 -0.978028313E+01 -0.238680372E+00
   H  0.101016816E+02  0.448835389E+01  0.414078960E+00
     5
 # iter = 58500  time[fs]=58.50000
   C -0.184132045E+00 -0.595453681E-02 -0.961843997E-04
   C  0.543744418E+00 -0.966248422E+00 -0.483322574E-03
   H -0.589787788E+00  0.946847093E+00  0.259583992E-01
   H  0.236290739E+01 -0.987643728E+01 -0.241271021E+00
   H  0.101871908E+02  0.453424893E+01  0.418487522E+00
     5
 # iter = 59000  time[fs]=59.00000
   C -0.182224493E+00 -0.178852764E-01  0.619973456E-03
   C  0.541564690E+00 -0.965279114E+00 -0.425062640E-04
   H -0.552600913E+00  0.951524581E+00  0.254207423E-01
   H  0.236077798E+01 -0.997274953E+01 -0.243864707E+00
   H  0.102727455E+02  0.458024048E+01  0.422910883E+00
     5
 # iter = 59500  time[fs]=59.50000
   C -0.180789205E+00 -0.294740719E-01  0.132077498E-02
   C  0.540272582E+00 -0.964443379E+00  0.397827795E-03
   H -0.517424232E+00  0.960242488E+00  0.250468560E-01
   H  0.235862703E+01 -0.100692349E+02 -0.246462715E+00
   H  0.103583888E+02  0.462634389E+01  0.427345819E+00
     5
 # iter = 60000  time[fs]=60.00000
   C -0.179949025E+00 -0.403744445E-01  0.200043069E-02
   C  0.539999617E+00 -0.963935830E+00  0.833884169E-03
   H -0.484175345E+00  0.972464964E+00  0.248198339E-01
   H  0.235645095E+01 -0.101658957E+02 -0.249065603E+00
   H  0.104441084E+02  0.467255759E+01  0.431790419E+00
     5
 # iter = 60500  time[fs]=60.50000
   C -0.179817653E+00 -0.502420527E-01  0.265642617E-02
   C  0.540846369E+00 -0.963912768E+00  0.126038926E-02
   H -0.452749134E+00  0.987102894E+00  0.247114860E-01
   H  0.235424462E+01 -0.102627380E+02 -0.251674418E+00
   H  0.105299271E+02  0.471888603E+01  0.436243720E+00
     5
 # iter = 61000  time[fs]=61.00000
   C -0.180491333E+00 -0.588006407E-01  0.328669699E-02
   C  0.542874888E+00 -0.964480755E+00  0.167005656E-02
   H -0.422965756E+00  0.100289110E+01  0.247242914E-01
   H  0.235200621E+01 -0.103597598E+02 -0.254289280E+00
   H  0.106158478E+02  0.476532976E+01  0.440704856E+00
     5
 # iter = 61500  time[fs]=61.50000
   C -0.182013310E+00 -0.658715119E-01  0.389090005E-02
   C  0.546081053E+00 -0.965650928E+00  0.205956004E-02
   H -0.394741628E+00  0.101846887E+01  0.247953680E-01
   H  0.234973536E+01 -0.104569617E+02 -0.256910283E+00
   H  0.107018835E+02  0.481189511E+01  0.445173353E+00
     5
 # iter = 62000  time[fs]=62.00000
   C -0.184370060E+00 -0.713689940E-01  0.446527415E-02
   C  0.550394567E+00 -0.967353880E+00  0.242550389E-02
   H -0.368104254E+00  0.103253959E+01  0.249229342E-01
   H  0.234743151E+01 -0.105543451E+02 -0.259537521E+00
   H  0.107880342E+02  0.485858482E+01  0.449649235E+00
     5
 # iter = 62500  time[fs]=62.50000
   C -0.187544239E+00 -0.752984970E-01  0.499885377E-02
   C  0.555742421E+00 -0.969508277E+00  0.276841090E-02
   H -0.342873901E+00  0.104418692E+01  0.251591980E-01
   H  0.234509268E+01 -0.106519088E+02 -0.262170719E+00
   H  0.108743025E+02  0.490539805E+01  0.454132448E+00
     5
 # iter = 63000  time[fs]=63.00000
   C -0.191472860E+00 -0.777032482E-01  0.547930464E-02
   C  0.562008006E+00 -0.971982696E+00  0.309644231E-02
   H -0.319086842E+00  0.105261466E+01  0.254816222E-01
   H  0.234271792E+01 -0.107496515E+02 -0.264809546E+00
   H  0.109606881E+02  0.495233400E+01  0.458623089E+00
     5
 # iter = 63500  time[fs]=63.50000
   C -0.196097543E+00 -0.786707641E-01  0.589067996E-02
   C  0.569073590E+00 -0.974666907E+00  0.341148933E-02
   H -0.296710744E+00  0.105746633E+01  0.260061647E-01
   H  0.234030776E+01 -0.108475704E+02 -0.267453621E+00
   H  0.110471899E+02  0.499939097E+01  0.463121298E+00
     5
 # iter = 64000  time[fs]=64.00000
   C -0.201337893E+00 -0.783055527E-01  0.622071989E-02
   C  0.576789858E+00 -0.977440451E+00  0.372294039E-02
   H -0.275717652E+00  0.105863530E+01  0.267267662E-01
   H  0.233786287E+01 -0.109456617E+02 -0.270102468E+00
   H  0.111338068E+02  0.504656720E+01  0.467627144E+00
     5
 # iter = 64500  time[fs]=64.50000
   C -0.207102711E+00 -0.767089880E-01  0.645861499E-02
   C  0.585015154E+00 -0.980202124E+00  0.403286873E-02
   H -0.256382386E+00  0.105624629E+01  0.277047426E-01
   H  0.233538368E+01 -0.110439211E+02 -0.272755736E+00
   H  0.112205379E+02  0.509386038E+01  0.472140703E+00
     5
 # iter = 65000  time[fs]=65.00000
   C -0.213320632E+00 -0.739935165E-01  0.659823647E-02
   C  0.593618208E+00 -0.982893312E+00  0.433685364E-02
   H -0.238593358E+00  0.105079453E+01  0.290166991E-01
   H  0.233287075E+01 -0.111423428E+02 -0.275413332E+00
   H  0.113073814E+02  0.514126759E+01  0.476661826E+00
     5
 # iter = 65500  time[fs]=65.50000
   C -0.219898796E+00 -0.702566764E-01  0.664578207E-02
   C  0.602471350E+00 -0.985484060E+00  0.463162509E-02
   H -0.222561789E+00  0.104301058E+01  0.305699693E-01
   H  0.233032533E+01 -0.112409214E+02 -0.278075483E+00
   H  0.113943354E+02  0.518878582E+01  0.481190161E+00
     5
 # iter = 66000  time[fs]=66.00000
   C -0.226734360E+00 -0.656212898E-01  0.661658464E-02
   C  0.611426492E+00 -0.987966863E+00  0.489946671E-02
   H -0.208235938E+00  0.103389683E+01  0.323615357E-01
   H  0.232774884E+01 -0.113396523E+02 -0.280742620E+00
   H  0.114813979E+02  0.523641211E+01  0.485725236E+00
     5
 # iter = 66500  time[fs]=66.50000
   C -0.233707240E+00 -0.602923010E-01  0.653854416E-02
   C  0.620306928E+00 -0.990273433E+00  0.512595233E-02
   H -0.195480573E+00  0.102463332E+01  0.342206287E-01
   H  0.232514231E+01 -0.114385322E+02 -0.283415232E+00
   H  0.115685669E+02  0.528414420E+01  0.490266547E+00
     5
 # iter = 67000  time[fs]=67.00000
   C -0.240661756E+00 -0.545784055E-01  0.643920191E-02
   C  0.628902662E+00 -0.992222149E+00  0.529866277E-02
   H -0.184461554E+00  0.101645880E+01  0.359624921E-01
   H  0.232250611E+01 -0.115375596E+02 -0.286093774E+00
   H  0.116558407E+02  0.533198072E+01  0.494813673E+00
     5
 # iter = 67500  time[fs]=67.50000
   C -0.247400758E+00 -0.488180345E-01  0.633853576E-02
   C  0.636945929E+00 -0.993583466E+00  0.540048466E-02
   H -0.175199307E+00  0.101050313E+01  0.375564373E-01
   H  0.231983998E+01 -0.116367344E+02 -0.288778521E+00
   H  0.117432177E+02  0.537992094E+01  0.499366392E+00
     5
 # iter = 68000  time[fs]=68.00000
   C -0.253765942E+00 -0.433362425E-01  0.623462346E-02
   C  0.644218517E+00 -0.994162397E+00  0.543070866E-02
   H -0.167511759E+00  0.100780616E+01  0.390149135E-01
   H  0.231714363E+01 -0.117360565E+02 -0.291469430E+00
   H  0.118306963E+02  0.542796412E+01  0.503924681E+00
     5
 # iter = 68500  time[fs]=68.50000
   C -0.259642448E+00 -0.383984246E-01  0.609064052E-02
   C  0.650560819E+00 -0.993792012E+00  0.540817846E-02
   H -0.161146984E+00  0.100904240E+01  0.405456154E-01
   H  0.231441717E+01 -0.118355256E+02 -0.294166109E+00
   H  0.119182746E+02  0.547610909E+01  0.508488674E+00
     5
 # iter = 69000  time[fs]=69.00000
   C -0.264924847E+00 -0.341434292E-01  0.586443001E-02
   C  0.655863619E+00 -0.992372979E+00  0.535754929E-02
   H -0.156175325E+00  0.101437490E+01  0.423876502E-01
   H  0.231166095E+01 -0.119351399E+02 -0.296867886E+00
   H  0.120059512E+02  0.552435433E+01  0.513058663E+00
     5
 # iter = 69500  time[fs]=69.50000
   C -0.269553153E+00 -0.305826008E-01  0.551795826E-02
   C  0.660105192E+00 -0.989929819E+00  0.529501765E-02
   H -0.152746396E+00  0.102362830E+01  0.448122600E-01
   H  0.230887542E+01 -0.120348952E+02 -0.299574222E+00
   H  0.120937246E+02  0.557269782E+01  0.517634801E+00
     5
 # iter = 70000  time[fs]=70.00000
   C -0.273467884E+00 -0.276020036E-01  0.504508921E-02
   C  0.663269839E+00 -0.986558754E+00  0.522624338E-02
   H -0.150967941E+00  0.103608902E+01  0.478557998E-01
   H  0.230606133E+01 -0.121347868E+02 -0.302284901E+00
   H  0.121815939E+02  0.562113724E+01  0.522216986E+00
     5
 # iter = 70500  time[fs]=70.50000
   C -0.276657411E+00 -0.250738528E-01  0.448703385E-02
   C  0.665411034E+00 -0.982355116E+00  0.513889689E-02
   H -0.151172712E+00  0.105086753E+01  0.512153888E-01
   H  0.230321973E+01 -0.122348101E+02 -0.304999933E+00
   H  0.122695574E+02  0.566967011E+01  0.526804968E+00
     5
 # iter = 71000  time[fs]=71.00000
   C -0.279106465E+00 -0.229140586E-01  0.389577194E-02
   C  0.666552580E+00 -0.977340551E+00  0.500573081E-02
   H -0.153620581E+00  0.106688473E+01  0.547246371E-01
   H  0.230035126E+01 -0.123349622E+02 -0.307719508E+00
   H  0.123576137E+02  0.571829454E+01  0.531398391E+00
     5
 # iter = 71500  time[fs]=71.50000
   C -0.280767355E+00 -0.210900965E-01  0.334062804E-02
   C  0.666623173E+00 -0.971450123E+00  0.479477677E-02
   H -0.158153432E+00  0.108293874E+01  0.580330952E-01
   H  0.229745572E+01 -0.124352420E+02 -0.310443861E+00
   H  0.124457615E+02  0.576700962E+01  0.535996997E+00
     5
 # iter = 72000  time[fs]=72.00000
   C -0.281644351E+00 -0.196352230E-01  0.284214002E-02
   C  0.665595988E+00 -0.964584861E+00  0.450337084E-02
   H -0.164587583E+00  0.109803899E+01  0.609976790E-01
   H  0.229453268E+01 -0.125356495E+02 -0.313173203E+00
   H  0.125339997E+02  0.581581476E+01  0.540600583E+00
     5
 # iter = 72500  time[fs]=72.50000
   C -0.281714603E+00 -0.185507174E-01  0.238145211E-02
   C  0.663411905E+00 -0.956649281E+00  0.415132678E-02
   H -0.172842998E+00  0.111115991E+01  0.636583214E-01
   H  0.229158208E+01 -0.126361848E+02 -0.315907429E+00
   H  0.126223267E+02  0.586470918E+01  0.545209172E+00
     5
 # iter = 73000  time[fs]=73.00000
   C -0.281043938E+00 -0.177758205E-01  0.191525431E-02
   C  0.660135597E+00 -0.947692103E+00  0.376648182E-02
   H -0.182837477E+00  0.112162272E+01  0.662661022E-01
   H  0.228860420E+01 -0.127368462E+02 -0.318646144E+00
   H  0.127107411E+02  0.591369150E+01  0.549822936E+00
     5
 # iter = 73500  time[fs]=73.50000
   C -0.279697252E+00 -0.171335387E-01  0.141329318E-02
   C  0.655839489E+00 -0.937883281E+00  0.336990854E-02
   H -0.194550644E+00  0.112879176E+01  0.689972834E-01
   H  0.228559955E+01 -0.128376302E+02 -0.321389004E+00
   H  0.127992418E+02  0.596275994E+01  0.554441964E+00
     5
 # iter = 74000  time[fs]=74.00000
   C -0.277802697E+00 -0.164070946E-01  0.886388109E-03
   C  0.650690404E+00 -0.927477922E+00  0.296441358E-02
   H -0.208326523E+00  0.113234967E+01  0.717511511E-01
   H  0.228256909E+01 -0.129385332E+02 -0.324135931E+00
   H  0.128878273E+02  0.601191236E+01  0.559066157E+00
     5
 # iter = 74500  time[fs]=74.50000
   C -0.275542929E+00 -0.154091536E-01  0.360427819E-03
   C  0.644887447E+00 -0.916735437E+00  0.254083278E-02
   H -0.224045553E+00  0.113208427E+01  0.744427453E-01
   H  0.227951392E+01 -0.130395518E+02 -0.326887144E+00
   H  0.129764960E+02  0.606114658E+01  0.563695181E+00
     5
 # iter = 75000  time[fs]=75.00000
   C -0.273028207E+00 -0.139984557E-01 -0.113751510E-03
   C  0.638547771E+00 -0.905891060E+00  0.208698047E-02
   H -0.241580361E+00  0.112805026E+01  0.767394870E-01
   H  0.227643450E+01 -0.131406837E+02 -0.329642992E+00
   H  0.130652467E+02  0.611046117E+01  0.568328675E+00
     5
 # iter = 75500  time[fs]=75.50000
   C -0.270359279E+00 -0.121658362E-01 -0.497559089E-03
   C  0.631783304E+00 -0.895047092E+00  0.159055173E-02
   H -0.261037568E+00  0.112041914E+01  0.784337974E-01
   H  0.227333083E+01 -0.132419286E+02 -0.332403842E+00
   H  0.131540779E+02  0.615985541E+01  0.572966343E+00
     5
 # iter = 76000  time[fs]=76.00000
   C -0.267608887E+00 -0.995857149E-02 -0.771639926E-03
   C  0.624651298E+00 -0.884258190E+00  0.103757073E-02
   H -0.282238953E+00  0.110951317E+01  0.795327974E-01
   H  0.227020265E+01 -0.133432864E+02 -0.335169992E+00
   H  0.132429887E+02  0.620932895E+01  0.577607974E+00
     5
 # iter = 76500  time[fs]=76.50000
   C -0.264868466E+00 -0.739853573E-02 -0.930303294E-03
   C  0.617261419E+00 -0.873662833E+00  0.431347049E-03
   H -0.305194717E+00  0.109605061E+01  0.799738219E-01
   H  0.226704987E+01 -0.134447569E+02 -0.337941543E+00
   H  0.133319777E+02  0.625888119E+01  0.582253470E+00
     5
 # iter = 77000  time[fs]=77.00000
   C -0.262238560E+00 -0.449955812E-02 -0.977556765E-03
   C  0.609730279E+00 -0.863382646E+00 -0.223929110E-03
   H -0.329828138E+00  0.108079897E+01  0.798335496E-01
   H  0.226387269E+01 -0.135463395E+02 -0.340718484E+00
   H  0.134210434E+02  0.630851128E+01  0.586902772E+00
     5
 # iter = 77500  time[fs]=77.50000
   C -0.259873214E+00 -0.127069598E-02 -0.922470139E-03
   C  0.602271972E+00 -0.853585459E+00 -0.918189226E-03
   H -0.356306211E+00  0.106486693E+01  0.791828632E-01
   H  0.226067150E+01 -0.136480330E+02 -0.343500735E+00
   H  0.135101847E+02  0.635821810E+01  0.591555825E+00
     5
 # iter = 78000  time[fs]=78.00000
   C -0.257904595E+00  0.229874335E-02 -0.768851961E-03
   C  0.595077190E+00 -0.844452815E+00 -0.164663815E-02
   H -0.384741529E+00  0.104938959E+01  0.780944984E-01
   H  0.225744673E+01 -0.137498357E+02 -0.346288201E+00
   H  0.135994001E+02  0.640800048E+01  0.596212579E+00
     5
 # iter = 78500  time[fs]=78.50000
   C -0.256469421E+00  0.622304766E-02 -0.519628244E-03
   C  0.588354422E+00 -0.836183737E+00 -0.240261630E-02
   H -0.415373160E+00  0.103558761E+01  0.765994275E-01
   H  0.225419880E+01 -0.138517456E+02 -0.349080775E+00
   H  0.136886885E+02  0.645785711E+01  0.600872972E+00
     5
 # iter = 79000  time[fs]=79.00000
   C -0.255709786E+00  0.105160791E-01 -0.182490537E-03
   C  0.582314513E+00 -0.828965999E+00 -0.317799960E-02
   H -0.448353979E+00  0.102459371E+01  0.747490558E-01
   H  0.225092822E+01 -0.139537606E+02 -0.351878332E+00
   H  0.137780488E+02  0.650778665E+01  0.605536950E+00
     5
 # iter = 79500  time[fs]=79.50000
   C -0.255758032E+00  0.151981766E-01  0.228203279E-03
   C  0.577136060E+00 -0.822941968E+00 -0.396531826E-02
   H -0.483597928E+00  0.101716900E+01  0.726714479E-01
   H  0.224763547E+01 -0.140558785E+02 -0.354680692E+00
   H  0.138674797E+02  0.655778772E+01  0.610204499E+00
     5
 # iter = 80000  time[fs]=80.00000
   C -0.256735138E+00  0.202957214E-01  0.691406507E-03
   C  0.572986189E+00 -0.818225519E+00 -0.475115980E-02
   H -0.521100686E+00  0.101362013E+01  0.704624258E-01
   H  0.224432106E+01 -0.141580973E+02 -0.357487563E+00
   H  0.139569802E+02  0.660785893E+01  0.614875684E+00
     5
 # iter = 80500  time[fs]=80.50000
   C -0.258713157E+00  0.258185735E-01  0.117784786E-02
   C  0.569956654E+00 -0.814874051E+00 -0.552351926E-02
   H -0.560612688E+00  0.101373202E+01  0.682980433E-01
   H  0.224098537E+01 -0.142604147E+02 -0.360298514E+00
   H  0.140465492E+02  0.665799899E+01  0.619550675E+00
     5
 # iter = 81000  time[fs]=81.00000
   C -0.261682444E+00  0.317383376E-01  0.165268060E-02
   C  0.568028929E+00 -0.812857715E+00 -0.627140568E-02
   H -0.601841045E+00  0.101675704E+01  0.664153447E-01
   H  0.223762855E+01 -0.143628290E+02 -0.363113023E+00
   H  0.141361858E+02  0.670820687E+01  0.624229722E+00
     5
 # iter = 81500  time[fs]=81.50000
   C -0.265545998E+00  0.379797335E-01  0.208512177E-02
   C  0.567084608E+00 -0.812055230E+00 -0.697580205E-02
   H -0.644616168E+00  0.102156149E+01  0.649524574E-01
   H  0.223425060E+01 -0.144653390E+02 -0.365930639E+00
   H  0.142258892E+02  0.675848181E+01  0.628913050E+00
     5
 # iter = 82000  time[fs]=82.00000
   C -0.270153241E+00  0.444222878E-01  0.245278119E-02
   C  0.566942213E+00 -0.812284819E+00 -0.761415266E-02
   H -0.688482219E+00  0.102697737E+01  0.639558932E-01
   H  0.223085152E+01 -0.145679437E+02 -0.368751104E+00
   H  0.143156586E+02  0.680882316E+01  0.633600755E+00
     5
 # iter = 82500  time[fs]=82.50000
   C -0.275333705E+00  0.509218562E-01  0.274371513E-02
   C  0.567406122E+00 -0.813340383E+00 -0.816796327E-02
   H -0.732866622E+00  0.103197867E+01  0.634191481E-01
   H  0.222743139E+01 -0.146706423E+02 -0.371574354E+00
   H  0.144054930E+02  0.685923020E+01  0.638292804E+00
     5
 # iter = 83000  time[fs]=83.00000
   C -0.280917720E+00  0.573263625E-01  0.295996897E-02
   C  0.568288742E+00 -0.815006659E+00 -0.862412889E-02
   H -0.777197229E+00  0.103571897E+01  0.632355596E-01
   H  0.222399041E+01 -0.147734341E+02 -0.374400451E+00
   H  0.144953913E+02  0.690970219E+01  0.642989075E+00
     5
 # iter = 83500  time[fs]=83.50000
   C -0.286754310E+00  0.634778233E-01  0.311772438E-02
   C  0.569414464E+00 -0.817080017E+00 -0.898040322E-02
   H -0.820624975E+00  0.103763140E+01  0.632415831E-01
   H  0.222052884E+01 -0.148763182E+02 -0.377229563E+00
   H  0.145853525E+02  0.696023828E+01  0.647689374E+00
     5
 # iter = 84000  time[fs]=84.00000
   C -0.292713058E+00  0.692466874E-01  0.324735027E-02
   C  0.570636396E+00 -0.819383168E+00 -0.924986314E-02
   H -0.862393679E+00  0.103720519E+01  0.632498851E-01
   H  0.221704702E+01 -0.149792935E+02 -0.380061944E+00
   H  0.146753756E+02  0.701083755E+01  0.652393454E+00
     5
 # iter = 84500  time[fs]=84.50000
   C -0.298677836E+00  0.745421297E-01  0.339245616E-02
   C  0.571828906E+00 -0.821767923E+00 -0.945609058E-02
   H -0.901944226E+00  0.103387508E+01  0.630030025E-01
   H  0.221354527E+01 -0.150823587E+02 -0.382897894E+00
   H  0.147654595E+02  0.706149910E+01  0.657101040E+00
     5
 # iter = 85000  time[fs]=85.00000
   C -0.304550330E+00  0.792985714E-01  0.359861500E-02
   C  0.572889824E+00 -0.824142852E+00 -0.962736386E-02
   H -0.938751640E+00  0.102728094E+01  0.622351209E-01
   H  0.221002393E+01 -0.151855125E+02 -0.385737689E+00
   H  0.148556035E+02  0.711222193E+01  0.661811866E+00
     5
 # iter = 85500  time[fs]=85.50000
   C -0.310239738E+00  0.834800902E-01  0.390613683E-02
   C  0.573738775E+00 -0.826452083E+00 -0.979381410E-02
   H -0.972560505E+00  0.101709025E+01  0.607577663E-01
   H  0.220648332E+01 -0.152887533E+02 -0.388581542E+00
   H  0.149458067E+02  0.716300508E+01  0.666525702E+00
     5
 # iter = 86000  time[fs]=86.00000
   C -0.315661195E+00  0.870656064E-01  0.434595455E-02
   C  0.574316740E+00 -0.828666903E+00 -0.997889386E-02
   H -0.100329327E+01  0.100308243E+01  0.584141015E-01
   H  0.220292373E+01 -0.153920792E+02 -0.391429577E+00
   H  0.150360682E+02  0.721384756E+01  0.671242375E+00
     5
 # iter = 86500  time[fs]=86.50000
   C -0.320734148E+00  0.900301652E-01  0.493571613E-02
   C  0.574577709E+00 -0.830782717E+00 -0.101950451E-01
   H -0.103089821E+01  0.985318424E+00  0.550775650E-01
   H  0.219934545E+01 -0.154954888E+02 -0.394281822E+00
   H  0.151263875E+02  0.726474844E+01  0.675961766E+00
     5
 # iter = 87000  time[fs]=87.00000
   C -0.325370149E+00  0.923442886E-01  0.568264126E-02
   C  0.574477643E+00 -0.832794697E+00 -0.104509153E-01
   H -0.105551849E+01  0.963975793E+00  0.507163984E-01
   H  0.219574874E+01 -0.155989805E+02 -0.397138249E+00
   H  0.152167638E+02  0.731570685E+01  0.680683800E+00
     5
 # iter = 87500  time[fs]=87.50000
   C -0.329475657E+00  0.939686058E-01  0.658702627E-02
   C  0.573979354E+00 -0.834701623E+00 -0.107486810E-01
   H -0.107746380E+01  0.939394966E+00  0.453064098E-01
   H  0.219213384E+01 -0.157025529E+02 -0.399998788E+00
   H  0.153071963E+02  0.736672199E+01  0.685408434E+00
     5
 # iter = 88000  time[fs]=88.00000
   C -0.332957262E+00  0.948502240E-01  0.764114195E-02
   C  0.573053028E+00 -0.836500765E+00 -0.110862664E-01
   H -0.109710037E+01  0.912129162E+00  0.388465704E-01
   H  0.218850096E+01 -0.158062047E+02 -0.402863356E+00
   H  0.153976845E+02  0.741779309E+01  0.690135638E+00
     5
 # iter = 88500  time[fs]=88.50000
   C -0.335719269E+00  0.949308752E-01  0.883113126E-02
   C  0.571675348E+00 -0.838179212E+00 -0.114622294E-01
   H -0.111494180E+01  0.882769847E+00  0.314126977E-01
   H  0.218485032E+01 -0.159099349E+02 -0.405731857E+00
   H  0.154882276E+02  0.746891946E+01  0.694865400E+00
     5
 # iter = 89000  time[fs]=89.00000
   C -0.337668074E+00  0.941527504E-01  0.101378422E-01
   C  0.569830177E+00 -0.839725629E+00 -0.118704455E-01
   H -0.113161918E+01  0.851921624E+00  0.230786694E-01
   H  0.218118210E+01 -0.160137425E+02 -0.408604184E+00
   H  0.155788251E+02  0.752010044E+01  0.699597723E+00
     5
 # iter = 89500  time[fs]=89.50000
   C -0.338721683E+00  0.924597247E-01  0.115344287E-01
   C  0.567504942E+00 -0.841135043E+00 -0.122966199E-01
   H -0.114772324E+01  0.820253874E+00  0.139015629E-01
   H  0.217749647E+01 -0.161176265E+02 -0.411480220E+00
   H  0.156694761E+02  0.757133543E+01  0.704332625E+00
     5
 # iter = 90000  time[fs]=90.00000
   C -0.338817863E+00  0.898012383E-01  0.129872826E-01
   C  0.564694230E+00 -0.842397165E+00 -0.127233987E-01
   H -0.116376791E+01  0.788380168E+00  0.397974053E-02
   H  0.217379357E+01 -0.162215862E+02 -0.414359827E+00
   H  0.157601801E+02  0.762262387E+01  0.709070148E+00
     5
 # iter = 90500  time[fs]=90.50000
   C -0.337922220E+00  0.861488904E-01  0.144563137E-01
   C  0.561408803E+00 -0.843501348E+00 -0.131305681E-01
   H -0.118019336E+01  0.756700779E+00 -0.655111558E-02
   H  0.217007354E+01 -0.163256209E+02 -0.417242845E+00
   H  0.158509364E+02  0.767396520E+01  0.713810357E+00
     5
 # iter = 91000  time[fs]=91.00000
   C -0.336036627E+00  0.815068422E-01  0.158956414E-01
   C  0.557677099E+00 -0.844453796E+00 -0.134919786E-01
   H -0.119728295E+01  0.725408946E+00 -0.175581211E-01
   H  0.216633654E+01 -0.164297298E+02 -0.420129083E+00
   H  0.159417444E+02  0.772535888E+01  0.718553340E+00
     5
 # iter = 91500  time[fs]=91.50000
   C -0.333213629E+00  0.759117077E-01  0.172515870E-01
   C  0.553551686E+00 -0.845284382E+00 -0.137761805E-01
   H -0.121507349E+01  0.694562707E+00 -0.288756700E-01
   H  0.216258272E+01 -0.165339122E+02 -0.423018320E+00
   H  0.160326034E+02  0.777680434E+01  0.723299209E+00
     5
 # iter = 92000  time[fs]=92.00000
   C -0.329563693E+00  0.694386698E-01  0.184676178E-01
   C  0.549125047E+00 -0.846046581E+00 -0.139548325E-01
   H -0.123339973E+01  0.664021335E+00 -0.402772534E-01
   H  0.215881230E+01 -0.166381674E+02 -0.425910317E+00
   H  0.161235126E+02  0.782830097E+01  0.728048081E+00
     5
 # iter = 92500  time[fs]=92.50000
   C -0.325251132E+00  0.622076067E-01  0.194959912E-01
   C  0.544538877E+00 -0.846824862E+00 -0.140119451E-01
   H -0.125197835E+01  0.633458784E+00 -0.515280769E-01
   H  0.215502554E+01 -0.167424946E+02 -0.428804849E+00
   H  0.162144714E+02  0.787984808E+01  0.732800058E+00
     5
 # iter = 93000  time[fs]=93.00000
   C -0.320501793E+00  0.543806593E-01  0.203031838E-01
   C  0.539977527E+00 -0.847745338E+00 -0.139413313E-01
   H -0.127029723E+01  0.602569685E+00 -0.624527261E-01
   H  0.215122278E+01 -0.168468927E+02 -0.431701737E+00
   H  0.163054791E+02  0.793144492E+01  0.737555198E+00
     5
 # iter = 93500  time[fs]=93.50000
   C -0.315591004E+00  0.461614238E-01  0.208768649E-01
   C  0.535656077E+00 -0.848971123E+00 -0.137495789E-01
   H -0.128771264E+01  0.571095884E+00 -0.729680026E-01
   H  0.214740435E+01 -0.169513608E+02 -0.434600889E+00
   H  0.163965348E+02  0.798309071E+01  0.742313494E+00
     5
 # iter = 94000  time[fs]=94.00000
   C -0.310813083E+00  0.377899714E-01  0.212256114E-01
   C  0.531808685E+00 -0.850683476E+00 -0.134591449E-01
   H -0.130366255E+01  0.538709563E+00 -0.830023502E-01
   H  0.214357059E+01 -0.170558976E+02 -0.437502321E+00
   H  0.164876380E+02  0.803478467E+01  0.747074864E+00
     5
 # iter = 94500  time[fs]=94.50000
   C -0.306459463E+00  0.295014366E-01  0.213732548E-01
   C  0.528657259E+00 -0.853057483E+00 -0.130900604E-01
   H -0.131755145E+01  0.505298437E+00 -0.926471870E-01
   H  0.213972180E+01 -0.171605021E+02 -0.440406169E+00
   H  0.165787880E+02  0.808652608E+01  0.751839154E+00
     5
 # iter = 95000  time[fs]=95.00000
   C -0.302770230E+00  0.214863783E-01  0.213492450E-01
   C  0.526369784E+00 -0.856215952E+00 -0.126557241E-01
   H -0.132881547E+01  0.470997174E+00 -0.102120253E+00
   H  0.213585825E+01 -0.172651737E+02 -0.443312644E+00
   H  0.166699842E+02  0.813831433E+01  0.756606159E+00
     5
 # iter = 95500  time[fs]=95.50000
   C -0.299904583E+00  0.138766660E-01  0.211730532E-01
   C  0.525043719E+00 -0.860198225E+00 -0.121736344E-01
   H -0.133706155E+01  0.435925064E+00 -0.111458045E+00
   H  0.213198013E+01 -0.173699118E+02 -0.446221948E+00
   H  0.167612258E+02  0.819014894E+01  0.761375698E+00
     5
 # iter = 96000  time[fs]=96.00000
   C -0.297953084E+00  0.675540440E-02  0.208574325E-01
   C  0.524729817E+00 -0.865006301E+00 -0.116490861E-01
   H -0.134202349E+01  0.400470102E+00 -0.120771876E+00
   H  0.212808759E+01 -0.174747161E+02 -0.449134203E+00
   H  0.168525123E+02  0.824202949E+01  0.766147636E+00
     5
 # iter = 96500  time[fs]=96.50000
   C -0.296946277E+00  0.175173105E-03  0.204052924E-01
   C  0.525449103E+00 -0.870606869E+00 -0.110863191E-01
   H -0.134371729E+01  0.364951365E+00 -0.130049513E+00
   H  0.212418079E+01 -0.175795863E+02 -0.452049441E+00
   H  0.169438429E+02  0.829395556E+01  0.770921898E+00
     5
 # iter = 97000  time[fs]=97.00000
   C -0.296873592E+00 -0.583169829E-02  0.198141059E-01
   C  0.527213456E+00 -0.876947506E+00 -0.104909407E-01
   H -0.134241106E+01  0.329642091E+00 -0.139165001E+00
   H  0.212025987E+01 -0.176845220E+02 -0.454967636E+00
   H  0.170352172E+02  0.834592668E+01  0.775698451E+00
     5
 # iter = 97500  time[fs]=97.50000
   C -0.297682597E+00 -0.112443050E-01  0.190857982E-01
   C  0.530038394E+00 -0.883980000E+00 -0.985438229E-02
   H -0.133865071E+01  0.294941386E+00 -0.148201760E+00
   H  0.211632505E+01 -0.177895225E+02 -0.457888707E+00
   H  0.171266344E+02  0.839794233E+01  0.780477292E+00
     5
 # iter = 98000  time[fs]=98.00000
   C -0.299275320E+00 -0.160705646E-01  0.182107602E-01
   C  0.533920629E+00 -0.891613938E+00 -0.917417417E-02
   H -0.133330996E+01  0.261071373E+00 -0.157009004E+00
   H  0.211237654E+01 -0.178945871E+02 -0.460812514E+00
   H  0.172180941E+02  0.845000195E+01  0.785258470E+00
     5
 # iter = 98500  time[fs]=98.50000
   C -0.301504054E+00 -0.203521113E-01  0.171799541E-01
   C  0.538829601E+00 -0.899743341E+00 -0.844028028E-02
   H -0.132744903E+01  0.228471921E+00 -0.165541627E+00
   H  0.210841454E+01 -0.179997151E+02 -0.463738852E+00
   H  0.173095957E+02  0.850210500E+01  0.790042085E+00
     5
 # iter = 99000  time[fs]=99.00000
   C -0.304158080E+00 -0.241745712E-01  0.159843798E-01
   C  0.544668083E+00 -0.908218551E+00 -0.764422198E-02
   H -0.132225709E+01  0.197501539E+00 -0.173768556E+00
   H  0.210443918E+01 -0.181049058E+02 -0.466667474E+00
   H  0.174011386E+02  0.855425098E+01  0.794828275E+00
     5
 # iter = 99500  time[fs]=99.50000
   C -0.306983926E+00 -0.276647110E-01  0.146100243E-01
   C  0.551267883E+00 -0.916839501E+00 -0.678370841E-02
   H -0.131889287E+01  0.168417398E+00 -0.181522577E+00
   H  0.210045053E+01 -0.182101586E+02 -0.469598151E+00
   H  0.174927225E+02  0.860643954E+01  0.799617183E+00
     5
 # iter =100000  time[fs]=********
   C -0.309732774E+00 -0.309698395E-01  0.130543434E-01
   C  0.558428477E+00 -0.925391532E+00 -0.584791799E-02
   H -0.131827273E+01  0.141577584E+00 -0.188865210E+00
   H  0.209644861E+01 -0.183154731E+02 -0.472530725E+00
   H  0.175843471E+02  0.865867033E+01  0.804408897E+00
     5
 # iter =100500  time[fs]=********
   C -0.312190230E+00 -0.342288874E-01  0.113238502E-01
   C  0.565954214E+00 -0.933663375E+00 -0.483304538E-02
   H -0.132101089E+01  0.117108206E+00 -0.195855888E+00
   H  0.209243346E+01 -0.184208486E+02 -0.475465121E+00
   H  0.176760118E+02  0.871094299E+01  0.809203444E+00
     5
 # iter =101000  time[fs]=********
   C -0.314212815E+00 -0.375467495E-01  0.942748046E-02
   C  0.573685855E+00 -0.941489295E+00 -0.374840545E-02
   H -0.132729667E+01  0.949967942E-01 -0.202426885E+00
   H  0.208840521E+01 -0.185262846E+02 -0.478401291E+00
   H  0.177677165E+02  0.876325706E+01  0.814000820E+00
     5
 # iter =101500  time[fs]=********
   C -0.315731754E+00 -0.409908317E-01  0.737775048E-02
   C  0.581487189E+00 -0.948760320E+00 -0.260139723E-02
   H -0.133681573E+01  0.753010093E-01 -0.208582960E+00
   H  0.208436402E+01 -0.186317800E+02 -0.481339180E+00
   H  0.178594606E+02  0.881561204E+01  0.818801010E+00
     5
 # iter =102000  time[fs]=********
   C -0.316737309E+00 -0.445838179E-01  0.517761360E-02
   C  0.589243085E+00 -0.955410406E+00 -0.140178448E-02
   H -0.134890734E+01  0.578782316E-01 -0.214188248E+00
   H  0.208031004E+01 -0.187373339E+02 -0.484278735E+00
   H  0.179512438E+02  0.886800737E+01  0.823603993E+00
     5
 # iter =102500  time[fs]=********
   C -0.317282013E+00 -0.483162790E-01  0.281638733E-02
   C  0.596899345E+00 -0.961407144E+00 -0.157207780E-03
   H -0.136272118E+01  0.424429296E-01 -0.218899267E+00
   H  0.207624349E+01 -0.188429452E+02 -0.487219900E+00
   H  0.180430659E+02  0.892044244E+01  0.828409738E+00
     5
 # iter =103000  time[fs]=********
   C -0.317442777E+00 -0.521769849E-01  0.297862999E-03
   C  0.604414604E+00 -0.966718218E+00  0.112863351E-02
   H -0.137728258E+01  0.287259107E-01 -0.222568309E+00
   H  0.207216454E+01 -0.189486129E+02 -0.490162633E+00
   H  0.181349265E+02  0.897291672E+01  0.833218209E+00
     5
 # iter =103500  time[fs]=********
   C -0.317262546E+00 -0.561642061E-01 -0.235627886E-02
   C  0.611690470E+00 -0.971309229E+00  0.244094630E-02
   H -0.139153927E+01  0.165421638E-01 -0.225126921E+00
   H  0.206807337E+01 -0.190543363E+02 -0.493106939E+00
   H  0.182268252E+02  0.902542971E+01  0.838029355E+00
     5
 # iter =104000  time[fs]=********
   C -0.316744981E+00 -0.603072975E-01 -0.512821686E-02
   C  0.618587837E+00 -0.975133252E+00  0.376004934E-02
   H -0.140452603E+01  0.595328180E-02 -0.226369938E+00
   H  0.206397014E+01 -0.191601149E+02 -0.496052870E+00
   H  0.183187613E+02  0.907798098E+01  0.842843096E+00
     5
 # iter =104500  time[fs]=********
   C -0.315858334E+00 -0.646603909E-01 -0.798191005E-02
   C  0.624931412E+00 -0.978094862E+00  0.506968889E-02
   H -0.141539870E+01 -0.308289511E-02 -0.226366978E+00
   H  0.205985498E+01 -0.192659487E+02 -0.499000463E+00
   H  0.184107343E+02  0.913057020E+01  0.847659376E+00
     5
 # iter =105000  time[fs]=********
   C -0.314556513E+00 -0.692552410E-01 -0.109019023E-01
   C  0.630546928E+00 -0.980101754E+00  0.636373358E-02
   H -0.142349734E+01 -0.107739741E-01 -0.225113595E+00
   H  0.205572793E+01 -0.193718376E+02 -0.501949732E+00
   H  0.185027437E+02  0.918319714E+01  0.852478153E+00
     5
 # iter =105500  time[fs]=********
   C -0.312812655E+00 -0.740798548E-01 -0.139014070E-01
   C  0.635314355E+00 -0.981117586E+00  0.763742958E-02
   H -0.142845044E+01 -0.172409384E-01 -0.222316970E+00
   H  0.205158902E+01 -0.194777812E+02 -0.504900653E+00
   H  0.185947889E+02  0.923586152E+01  0.857299404E+00
     5
 # iter =106000  time[fs]=********
   C -0.310650060E+00 -0.790981007E-01 -0.169881467E-01
   C  0.639174418E+00 -0.981142027E+00  0.889842935E-02
   H -0.142994693E+01 -0.226240672E-01 -0.217907858E+00
   H  0.204743832E+01 -0.195837790E+02 -0.507853144E+00
   H  0.186868697E+02  0.928856296E+01  0.862123133E+00
     5
 # iter =106500  time[fs]=********
   C -0.308153523E+00 -0.842514653E-01 -0.201701620E-01
   C  0.642175808E+00 -0.980236853E+00  0.101564560E-01
   H -0.142796926E+01 -0.269237944E-01 -0.211786750E+00
   H  0.204327603E+01 -0.196898302E+02 -0.510807168E+00
   H  0.187789855E+02  0.934130093E+01  0.866949300E+00
     5
 # iter =107000  time[fs]=********
   C -0.305448519E+00 -0.894710030E-01 -0.234399729E-01
   C  0.644414613E+00 -0.978486578E+00  0.114164089E-01
   H -0.142259553E+01 -0.300519305E-01 -0.203959550E+00
   H  0.203910243E+01 -0.197959340E+02 -0.513762765E+00
   H  0.188711360E+02  0.939407486E+01  0.871777805E+00
     5
 # iter =107500  time[fs]=********
   C -0.302642660E+00 -0.946766087E-01 -0.267320030E-01
   C  0.645984711E+00 -0.976000594E+00  0.126622237E-01
   H -0.141403780E+01 -0.319708020E-01 -0.194856422E+00
   H  0.203491771E+01 -0.199020894E+02 -0.516720031E+00
   H  0.189633209E+02  0.944688422E+01  0.876608517E+00
     5
 # iter =108000  time[fs]=********
   C -0.299825707E+00 -0.998290723E-01 -0.299671426E-01
   C  0.646994649E+00 -0.972866159E+00  0.138666695E-01
   H -0.140277988E+01 -0.326134635E-01 -0.184831568E+00
   H  0.203072204E+01 -0.200082958E+02 -0.519679108E+00
   H  0.190555398E+02  0.949972853E+01  0.881441289E+00
     5
 # iter =108500  time[fs]=********
   C -0.297033413E+00 -0.104935516E+00 -0.330643767E-01
   C  0.647498616E+00 -0.969115227E+00  0.150053781E-01
   H -0.138938311E+01 -0.320098852E-01 -0.174304878E+00
   H  0.202651552E+01 -0.201145525E+02 -0.522640131E+00
   H  0.191477924E+02  0.955260744E+01  0.886275997E+00
     5
 # iter =109000  time[fs]=********
   C -0.294240609E+00 -0.110006424E+00 -0.359424982E-01
   C  0.647496801E+00 -0.964786781E+00  0.160519855E-01
   H -0.137460319E+01 -0.300346195E-01 -0.163775804E+00
   H  0.202229816E+01 -0.202208592E+02 -0.525603181E+00
   H  0.192400785E+02  0.960552068E+01  0.891112563E+00
     5
 # iter =109500  time[fs]=********
   C -0.291420172E+00 -0.115049322E+00 -0.385538206E-01
   C  0.647002992E+00 -0.959921174E+00  0.169837362E-01
   H -0.135936099E+01 -0.265207227E-01 -0.153466613E+00
   H  0.201807001E+01 -0.203272155E+02 -0.528568293E+00
   H  0.193323976E+02  0.965846798E+01  0.895950945E+00
     5
 # iter =110000  time[fs]=********
   C -0.288574905E+00 -0.120063539E+00 -0.408805026E-01
   C  0.646071447E+00 -0.954559071E+00  0.177963201E-01
   H -0.134467031E+01 -0.214559677E-01 -0.143540983E+00
   H  0.201383114E+01 -0.204336211E+02 -0.531535466E+00
   H  0.194247494E+02  0.971144904E+01  0.900791124E+00
     5
 # iter =110500  time[fs]=********
   C -0.285732178E+00 -0.125024951E+00 -0.429228315E-01
   C  0.644792108E+00 -0.948791598E+00  0.185026734E-01
   H -0.133159550E+01 -0.146268832E-01 -0.134212502E+00
   H  0.200958165E+01 -0.205400755E+02 -0.534504639E+00
   H  0.195171336E+02  0.976446352E+01  0.905633117E+00
     5
 # iter =111000  time[fs]=********
   C -0.282949341E+00 -0.129894765E+00 -0.447102807E-01
   C  0.643269663E+00 -0.942743046E+00  0.191147356E-01
   H -0.132104242E+01 -0.578606400E-02 -0.125389012E+00
   H  0.200532163E+01 -0.206465782E+02 -0.537475688E+00
   H  0.196095497E+02  0.981751104E+01  0.910476994E+00
     5
 # iter =111500  time[fs]=********
   C -0.280302727E+00 -0.134641201E+00 -0.462874539E-01
   C  0.641615925E+00 -0.936537577E+00  0.196478910E-01
   H -0.131370333E+01  0.518653628E-02 -0.116849364E+00
   H  0.200105117E+01 -0.207531289E+02 -0.540448425E+00
   H  0.197019975E+02  0.987059128E+01  0.915322871E+00
     5
 # iter =112000  time[fs]=********
   C -0.277892675E+00 -0.139250675E+00 -0.476897322E-01
   C  0.639950518E+00 -0.930293822E+00  0.201181131E-01
   H -0.130994213E+01  0.184587274E-01 -0.108458031E+00
   H  0.199677030E+01 -0.208597270E+02 -0.543422664E+00
   H  0.197944766E+02  0.992370395E+01  0.920170868E+00
     5
 # iter =112500  time[fs]=********
   C -0.275848346E+00 -0.143706658E+00 -0.489449925E-01
   C  0.638393510E+00 -0.924124130E+00  0.205267694E-01
   H -0.130971117E+01  0.340730994E-01 -0.999058906E-01
   H  0.199247903E+01 -0.209663721E+02 -0.546398263E+00
   H  0.198869868E+02  0.997684879E+01  0.925021074E+00
     5
 # iter =113000  time[fs]=********
   C -0.274342999E+00 -0.147962197E+00 -0.500682971E-01
   C  0.637075887E+00 -0.918156237E+00  0.208758100E-01
   H -0.131257734E+01  0.518846968E-01 -0.909905766E-01
   H  0.198817741E+01 -0.210730639E+02 -0.549375138E+00
   H  0.199795278E+02  0.100300255E+02  0.929873523E+00
     5
 # iter =113500  time[fs]=********
   C -0.273608902E+00 -0.151926708E+00 -0.510574613E-01
   C  0.636166853E+00 -0.912565473E+00  0.211799470E-01
   H -0.131776582E+01  0.717949899E-01 -0.818669155E-01
   H  0.198386550E+01 -0.211798015E+02 -0.552353279E+00
   H  0.200720994E+02  0.100832338E+02  0.934728186E+00
     5
 # iter =114000  time[fs]=********
   C -0.273913640E+00 -0.155473005E+00 -0.519027538E-01
   C  0.635867672E+00 -0.907552077E+00  0.214430040E-01
   H -0.132433368E+01  0.935177925E-01 -0.726017098E-01
   H  0.197954346E+01 -0.212865844E+02 -0.555332759E+00
   H  0.201647014E+02  0.101364732E+02  0.939584960E+00
     5
 # iter =114500  time[fs]=********
   C -0.275478677E+00 -0.158498139E+00 -0.525670974E-01
   C  0.636329221E+00 -0.903265203E+00  0.216714092E-01
   H -0.133129324E+01  0.116589056E+00 -0.635243740E-01
   H  0.197521140E+01 -0.213934116E+02 -0.558313764E+00
   H  0.202573335E+02  0.101897433E+02  0.944443663E+00
     5
 # iter =115000  time[fs]=********
   C -0.278388354E+00 -0.160983912E+00 -0.529836060E-01
   C  0.637567936E+00 -0.899755647E+00  0.218659235E-01
   H -0.133772226E+01  0.140689459E+00 -0.552028297E-01
   H  0.197086937E+01 -0.215002829E+02 -0.561296521E+00
   H  0.203499955E+02  0.102430439E+02  0.949304098E+00
     5
 # iter =115500  time[fs]=********
   C -0.282628128E+00 -0.162959095E+00 -0.531063168E-01
   C  0.639506898E+00 -0.897005175E+00  0.219996205E-01
   H -0.134280227E+01  0.165411057E+00 -0.476950955E-01
   H  0.196651741E+01 -0.216071978E+02 -0.564281157E+00
   H  0.204426871E+02  0.102963748E+02  0.954166142E+00
     5
 # iter =116000  time[fs]=********
   C -0.288156893E+00 -0.164444775E+00 -0.529234928E-01
   C  0.642070088E+00 -0.894999425E+00  0.220715851E-01
   H -0.134592528E+01  0.190334908E+00 -0.411108819E-01
   H  0.196215561E+01 -0.217141560E+02 -0.567267665E+00
   H  0.205354080E+02  0.103497355E+02  0.959029761E+00
     5
 # iter =116500  time[fs]=********
   C -0.294910645E+00 -0.165468911E+00 -0.524689185E-01
   C  0.645175735E+00 -0.893725504E+00  0.220888721E-01
   H -0.134661830E+01  0.215245779E+00 -0.352732567E-01
   H  0.195778416E+01 -0.218211571E+02 -0.570255918E+00
   H  0.206281578E+02  0.104031258E+02  0.963895007E+00
     5
 # iter =117000  time[fs]=********
   C -0.302748989E+00 -0.166098230E+00 -0.517935211E-01
   C  0.648682745E+00 -0.893113156E+00  0.220437325E-01
   H -0.134459882E+01  0.239865120E+00 -0.297028457E-01
   H  0.195340318E+01 -0.219282007E+02 -0.573245714E+00
   H  0.207209360E+02  0.104565453E+02  0.968761998E+00
     5
 # iter =117500  time[fs]=********
   C -0.311444274E+00 -0.166445181E+00 -0.509260812E-01
   C  0.652388909E+00 -0.893037109E+00  0.219374230E-01
   H -0.133974848E+01  0.264025176E+00 -0.242331657E-01
   H  0.194901273E+01 -0.220352867E+02 -0.576236885E+00
   H  0.208137424E+02  0.105099937E+02  0.973630836E+00
     5
 # iter =118000  time[fs]=********
   C -0.320720494E+00 -0.166636460E+00 -0.498824128E-01
   C  0.656073706E+00 -0.893354440E+00  0.217576075E-01
   H -0.133215060E+01  0.287645392E+00 -0.185502763E-01
   H  0.194461284E+01 -0.221424146E+02 -0.579229338E+00
   H  0.209065767E+02  0.105634708E+02  0.978501574E+00
     5
 # iter =118500  time[fs]=********
   C -0.330304535E+00 -0.166781657E+00 -0.486636449E-01
   C  0.659541247E+00 -0.893932136E+00  0.214979763E-01
   H -0.132207960E+01  0.310632429E+00 -0.125590106E-01
   H  0.194020354E+01 -0.222495842E+02 -0.582223043E+00
   H  0.209994387E+02  0.106169764E+02  0.983374212E+00
     5
 # iter =119000  time[fs]=********
   C -0.339951423E+00 -0.166968725E+00 -0.472621035E-01
   C  0.662640284E+00 -0.894674052E+00  0.211581116E-01
   H -0.130991630E+01  0.333085012E+00 -0.633616542E-02
   H  0.193578491E+01 -0.223567949E+02 -0.585217996E+00
   H  0.210923281E+02  0.106705102E+02  0.988248718E+00
     5
 # iter =119500  time[fs]=********
   C -0.349443102E+00 -0.167265599E+00 -0.456708805E-01
   C  0.665263584E+00 -0.895514288E+00  0.207261311E-01
   H -0.129616119E+01  0.355185936E+00  0.205987063E-03
   H  0.193135705E+01 -0.224640462E+02 -0.588214207E+00
   H  0.211852448E+02  0.107240718E+02  0.993125052E+00
     5
 # iter =120000  time[fs]=********
   C -0.358575044E+00 -0.167726801E+00 -0.438778500E-01
   C  0.667326635E+00 -0.896395712E+00  0.201921042E-01
   H -0.128144212E+01  0.377070749E+00  0.703395837E-02
   H  0.192692003E+01 -0.225713376E+02 -0.591211699E+00
   H  0.212781886E+02  0.107776610E+02  0.998003160E+00
