    12
 # iter =120000  time[fs]=********
   C -0.118430102E+01 -0.550625795E-01  0.120668907E+00
   C  0.223839182E+00  0.679579046E+00  0.647301583E-02
   C -0.434390830E+00 -0.149110931E+01  0.777459331E-01
   C  0.967438531E+00 -0.987814432E+00  0.473611582E-02
   H -0.221176534E+01  0.263555615E+00  0.256603996E+00
   H  0.885185143E+00  0.165228302E+01  0.818990115E+00
   H -0.579790464E+00 -0.262901170E+01  0.290882967E+00
   H  0.201398189E+01 -0.905665452E+00  0.139772979E+00
   H -0.251473706E+02  0.807686243E+01 -0.187372688E+02
   H  0.753922670E+01  0.199809733E+02  0.134349376E+02
   H -0.290069642E+01 -0.883894705E+01  0.976436525E+01
   H  0.144681323E+01 -0.147363790E+01 -0.137987811E+01
