    12
 # iter =120000  time[fs]=********
   C -0.113525677E+01  0.287856070E+00  0.735905984E-01
   C  0.189931705E+00  0.375458779E+00 -0.209624117E-01
   C -0.141505225E+01 -0.102560648E+01  0.303583296E+00
   C  0.282060357E+00 -0.125271917E+01  0.136982978E+00
   H -0.215242732E+01  0.980586595E+00  0.829347785E+00
   H  0.987494667E+00  0.879168845E+00 -0.918442639E+00
   H -0.236088130E+01 -0.141103012E+01 -0.408736271E+00
   H  0.820588851E+00 -0.160486650E+01  0.129502845E+01
   H -0.180878579E+02  0.172840790E+02 -0.770751428E+00
   H  0.238376595E+02  0.131849291E+02  0.149282331E+02
   H -0.214777841E+02 -0.213460023E+02 -0.163253000E+01
   H  0.249996194E+02 -0.193402726E+02 -0.129784554E+02
