    12
 # iter =120000  time[fs]=********
   C -0.107239108E+01  0.212638999E+01  0.898349798E+00
   C -0.122847059E+00  0.910906927E+00 -0.463675479E-01
   C -0.212543387E+01  0.167683780E+00 -0.497999689E-01
   C -0.812276912E+00 -0.265454256E+00 -0.291750218E+00
   H -0.237181006E+01  0.192255625E+01  0.127774207E+01
   H  0.610810013E+00  0.109281654E+01 -0.878503368E+00
   H -0.348181332E+01  0.578265056E-02 -0.592629743E+00
   H -0.699212354E-01 -0.108476220E+01 -0.725561922E+00
   H -0.184315240E+02  0.136995206E+02 -0.752135078E+01
   H  0.189713499E+02  0.209585115E+02  0.152662667E+02
   H -0.152781925E+02 -0.212150953E+02  0.122568388E+02
   H  0.252673401E+02 -0.115224440E+02 -0.187483468E+02
