    12
 # iter =105500  time[fs]=********
   C -0.548442052E+00  0.155955926E+01  0.317300982E-01
   C -0.273495907E+00  0.306379601E+01 -0.277472079E+00
   C  0.607579167E+00  0.760012412E+00  0.272596456E+00
   C  0.148859443E+01 -0.234091686E+00  0.278653331E+00
   H -0.165666597E+01  0.999011012E+00  0.673757174E+00
   H  0.575376708E+00  0.407834956E+01 -0.346322903E+00
   H -0.133289866E+01 -0.103566545E+01  0.142143537E+01
   H  0.166122327E+01 -0.784229441E+00 -0.843174286E+00
   H -0.218561064E+02  0.114132441E+02 -0.132920054E+02
   H -0.870324739E+00  0.341285967E+01 -0.144290207E+01
   H -0.187585051E+02 -0.149196809E+02  0.905444288E+01
   H  0.195096662E+02 -0.119597959E+02 -0.179433403E+00
