    12
 # iter =107500  time[fs]=********
   C -0.161319889E+01 -0.290423651E+00 -0.125756346E+00
   C -0.831138864E-01 -0.608732034E-01  0.318119134E+00
   C -0.182083363E+01 -0.145831589E+01 -0.886918369E+00
   C  0.633199719E+00 -0.152804238E+01 -0.670349179E-02
   H -0.222800786E+01  0.596469340E+00 -0.203553664E+00
   H  0.451470500E+00  0.867425311E+00  0.444396416E+00
   H -0.231047373E+01 -0.266534137E+01 -0.200785448E+01
   H  0.120000258E+01 -0.244769087E+01 -0.867241231E+00
   H -0.146896517E+02  0.151394162E+02 -0.991781117E+01
   H  0.110994220E+02  0.108115812E+02  0.132633836E+02
   H -0.247897995E+01 -0.241312570E+01 -0.156320793E+00
   H  0.216447802E+02 -0.143196742E+02 -0.149595852E+02
