    12
 # iter =120000  time[fs]=********
   C -0.151577770E+01 -0.144782610E+01  0.577209299E-01
   C -0.447969202E+00  0.270587627E+00  0.649675786E+00
   C -0.195536037E-01 -0.188221641E+01 -0.723074991E-01
   C  0.980972618E+00 -0.615989855E+00  0.292985722E+00
   H -0.243566935E+02  0.142622980E+02  0.112366153E+02
   H -0.570319598E+00  0.135824345E+01  0.237909903E+00
   H  0.303266765E+00 -0.230958005E+01 -0.140221192E+01
   H  0.192731565E+01 -0.772506045E-01 -0.308644392E+00
   H -0.225394666E+01 -0.145877983E+01  0.108455431E+01
   H  0.139196391E+00  0.364226996E+00  0.196326371E+01
   H  0.430133162E+00 -0.272008134E+01  0.609226699E+00
   H  0.157846721E+02 -0.478629599E+01 -0.603563760E+01
