    12
 # iter =120000  time[fs]=********
   C -0.383020714E+01  0.167587518E-01  0.552964722E+00
   C  0.938190055E+00  0.266704844E+00 -0.130869800E+00
   C -0.478562567E+01  0.565631472E+00  0.133333656E+01
   C  0.116195949E+01 -0.808609888E+00 -0.664343017E+00
   H -0.322604544E+01  0.632273676E+00 -0.139820461E+00
   H  0.942165823E+00  0.131442930E+01  0.122864143E+00
   H -0.577675425E+01 -0.380924516E+00  0.169708717E+01
   H  0.160295425E+01 -0.162931511E+01 -0.108043464E+01
   H -0.836802762E+01  0.142717838E+02 -0.126076689E+01
   H  0.279850990E+02  0.148841794E+02  0.149162795E+02
   H -0.527997550E+01  0.160782495E+01  0.100570056E+01
   H  0.985435135E+01 -0.172215347E+02 -0.125916577E+02
