    12
 # iter =107500  time[fs]=********
   C -0.163068852E+01  0.117874929E+01  0.100571959E+01
   C -0.754710791E+00  0.155803089E+01 -0.832178747E-01
   C -0.153855825E+01 -0.366300497E+00  0.965018871E+00
   C -0.287395327E+00  0.102562731E+00 -0.617146804E+00
   H -0.195967918E+01  0.190365796E+01  0.172780875E+01
   H -0.133172273E+01  0.209484997E+01 -0.924081235E+00
   H -0.137950067E+01 -0.141697775E+01  0.119217250E+01
   H -0.308292188E+00  0.178380678E+00 -0.191796786E+01
   H -0.143114903E+02  0.165793930E+02 -0.302925270E+00
   H  0.231257839E+02  0.162446635E+02  0.875977900E+01
   H -0.159415479E+02 -0.143025244E+02  0.107779952E+02
   H  0.107295597E+02 -0.819892263E+01 -0.132772285E+02
