    12
 # iter =120000  time[fs]=********
   C -0.124409227E+01  0.232380442E+00  0.130362286E+01
   C -0.659408676E+00  0.831919717E+00 -0.907864263E-01
   C  0.148477085E+00 -0.848652904E+00  0.140666847E+01
   C  0.461957360E+00 -0.864832079E-01 -0.136411886E-01
   H -0.129242538E+01  0.398220199E+00  0.245009114E+01
   H -0.111271862E+01  0.501700436E+00 -0.121953009E+01
   H -0.568013711E-01 -0.199109087E+01  0.827678098E+00
   H  0.120903104E+01 -0.546055260E+00 -0.808854224E+00
   H -0.494053758E+01 -0.338050327E+01  0.237367712E+01
   H -0.669096479E+00  0.208008574E+01 -0.428522637E+00
   H  0.765411818E+00 -0.632036765E+00  0.266585262E+01
   H  0.268101806E+02 -0.106489177E+02 -0.180550928E+02
