    12
 # iter = 98500  time[fs]=98.50000
   C -0.848845671E+00  0.533671727E+00  0.457642765E-01
   C  0.398292746E+00  0.320477095E+00  0.299825966E+00
   C -0.187573287E+00 -0.295358085E+01  0.112715997E+00
   C  0.604899205E+00 -0.192538761E+01  0.501809795E+00
   H -0.157727217E+01  0.131535118E+01 -0.664928441E+00
   H  0.129170547E+01  0.400161620E+00 -0.786035225E+00
   H -0.161849454E+01 -0.282931553E+01  0.361462969E+00
   H  0.164398073E+01 -0.211706647E+01  0.133347250E+01
   H -0.180836888E+02  0.710776743E+01 -0.114138657E+02
   H  0.102514517E+01  0.534004672E+00  0.131478246E+01
   H -0.294375874E+00 -0.382120023E+01 -0.938336605E+00
   H  0.158591326E+02 -0.940111561E+01 -0.132890898E+02
