    12
 # iter = 96000  time[fs]=96.00000
   C -0.124545590E+01  0.187806997E+00  0.853301436E-01
   C -0.173256343E+00  0.286214786E+00  0.711421789E+00
   C -0.148220785E+01 -0.632672793E+00 -0.911726158E+00
   C  0.389479167E-01 -0.129057556E+01 -0.323415686E+00
   H -0.615045916E+01  0.464753277E+01  0.167885794E+01
   H  0.645419003E+00  0.599961337E+00  0.121976245E+01
   H -0.235121604E+01 -0.168607881E+01 -0.113019521E+01
   H  0.192702781E+00 -0.264134401E+01 -0.487815678E+00
   H -0.137181191E+02  0.160172453E+02 -0.900919432E+01
   H  0.157328704E+02  0.105446778E+02  0.137276136E+02
   H -0.119339809E+02 -0.109432860E+02 -0.122863412E+01
   H  0.211821053E+02 -0.126743982E+02 -0.120630544E+02
