    12
 # iter = 92500  time[fs]=92.50000
   C -0.210889935E+00  0.103541128E+01  0.886073910E-03
   C  0.594147479E+00  0.211464087E+01  0.670230638E-01
   C  0.336658324E+00 -0.308663681E+00 -0.253967786E+00
   C  0.159729743E+01 -0.669249222E+00 -0.814026459E+00
   H -0.136698810E+02  0.847395835E+01  0.707502930E+01
   H  0.145931283E+01  0.293570635E+01 -0.198648360E+00
   H -0.959314655E+00 -0.145341333E+01 -0.171620813E+00
   H  0.408117675E+01 -0.471452554E+01  0.846931355E+01
   H -0.139081644E+02  0.112335131E+02 -0.129024077E+02
   H  0.130783052E+02  0.160812752E+02  0.980281545E+01
   H -0.141841207E+02 -0.116921997E+02  0.133466218E+01
   H  0.150402040E+02 -0.663793793E+01 -0.272947080E+01
