    12
 # iter =120000  time[fs]=********
   C -0.191178725E+01  0.917004114E+00  0.282634444E+00
   C -0.353197564E+00  0.118308834E+01  0.467637409E-02
   C -0.492131500E-01 -0.116239764E+01 -0.442451055E+00
   C  0.770917747E+00  0.406059544E-01 -0.324940891E+00
   H -0.278907764E+01  0.100407152E+01  0.119673596E+01
   H -0.536171407E-02  0.246198847E+01 -0.510920354E+00
   H  0.701798638E+00 -0.232663796E+01 -0.788641028E-02
   H  0.177665702E+01 -0.359609233E+00  0.296657485E+00
   H -0.269049635E+01  0.406736259E+00 -0.675469617E+00
   H  0.488886880E+00  0.137003293E+01  0.110136903E+01
   H  0.158065829E+01 -0.834714393E+01  0.789435266E+01
   H  0.185289860E+01 -0.117889699E+00 -0.142992302E+01
