    12
 # iter =120000  time[fs]=********
   C -0.210425659E+01  0.127814786E+01 -0.686208613E+00
   C  0.109850597E+01  0.401924642E+00  0.598323331E+00
   C -0.247518222E+01 -0.197827787E+00 -0.372348015E+00
   C  0.235331626E+01 -0.291012292E+00  0.464922323E+00
   H -0.297820859E+01  0.170223302E+01 -0.139786401E+00
   H  0.966775382E+00  0.161827699E+01  0.543548749E+00
   H -0.290526760E+01 -0.140643190E+01 -0.122930186E+01
   H  0.322902154E+01 -0.101635239E+01  0.890213945E+00
   H -0.173784623E+01  0.175696335E+01 -0.173584054E+01
   H  0.105166854E+01  0.352360554E+01  0.531492293E+01
   H -0.304462036E+01 -0.515333312E+00  0.516256292E+00
   H  0.307524305E+01  0.260330845E+00 -0.776810731E+00
