    12
 # iter =120000  time[fs]=********
   C -0.548620370E+00  0.618256513E+00 -0.248654565E+00
   C  0.871493695E+00  0.757756737E+00 -0.313908635E+00
   C -0.634123231E+00 -0.758691995E+00  0.981066055E+00
   C  0.867002044E+00 -0.815623930E+00  0.107611960E+01
   H -0.199572799E+02  0.126192703E+02  0.868867978E+01
   H  0.172403616E+01  0.899673257E+00 -0.925012469E+00
   H -0.132065741E+01 -0.107965435E+01  0.181129893E+01
   H  0.173871995E+01 -0.147316092E+01  0.344723223E+00
   H -0.241048474E+02  0.121378803E+02 -0.185515363E+02
   H  0.130543346E+02  0.280141969E+02  0.158853747E+02
   H -0.222098716E+02 -0.234963764E+02  0.751844276E+01
   H  0.264683751E+02 -0.139728501E+02 -0.362956042E+01
