    12
 # iter =114000  time[fs]=********
   C  0.232127538E+00  0.682719534E-01 -0.153579088E-01
   C  0.122078440E+01  0.121628266E+01  0.657136276E-02
   C  0.136964043E+01 -0.872133529E+00  0.154129630E+00
   C  0.249266726E+01  0.113847401E-01  0.166652499E-02
   H -0.203297005E+02  0.113447176E+02  0.588179643E+01
   H  0.143488772E+01  0.214811752E+01 -0.452727158E+00
   H  0.130044048E+01 -0.219255386E+01 -0.583476735E-01
   H  0.367644000E+01 -0.197555891E-01 -0.542894460E+00
   H -0.894446224E+00 -0.496469780E+00 -0.324820783E-01
   H  0.113818580E+02  0.152965470E+02  0.132901547E+02
   H -0.103835815E+02 -0.197831399E+02  0.125549315E+02
   H  0.185368057E+02 -0.841931903E+01 -0.132527169E+02
