    12
 # iter =120000  time[fs]=********
   C -0.142529875E+01  0.997179892E+00 -0.337994257E+00
   C -0.561138019E-01  0.356424615E+00 -0.105892098E+00
   C  0.728087706E+00 -0.351609734E+01  0.902598180E-01
   C  0.952157591E+00 -0.216274761E+01  0.212096224E-01
   H -0.229738698E+01  0.603047960E+00  0.369679475E+00
   H  0.950452386E+00  0.505395710E+00 -0.102900743E+01
   H  0.127852412E+01 -0.517220390E+01 -0.286211926E+00
   H  0.352004166E+01 -0.121865145E+01  0.251676917E+01
   H -0.121786055E+01  0.189469138E+01 -0.114774023E+01
   H  0.755901744E-01  0.204458200E+00  0.123996431E+01
   H -0.703218816E+00 -0.396684107E+01 -0.487884900E+00
   H  0.188047287E+01 -0.158095847E+01 -0.236240344E+00
