    12
 # iter =120000  time[fs]=********
   C -0.122979272E+01 -0.154519585E+01 -0.907129741E+00
   C -0.534284772E-02 -0.643768181E+00 -0.456588311E-01
   C -0.844169555E+00 -0.267157564E+01  0.621340596E-01
   C  0.518373785E+00 -0.192591411E+01  0.601746001E+00
   H -0.197948693E+01 -0.115293207E+01 -0.188108117E+01
   H -0.375788818E+00  0.422597216E+00  0.765974447E+00
   H -0.158810384E+01 -0.288344054E+01  0.851242172E+00
   H  0.669357278E+00 -0.208869644E+01  0.166501954E+01
   H -0.166739017E+02  0.841159813E+01 -0.590697525E+01
   H  0.161776541E+02  0.193441204E+02  0.855228002E+01
   H -0.100834224E+02 -0.210301952E+02  0.677469478E+01
   H  0.147829108E+01 -0.279793226E+01  0.429713088E-01
