    12
 # iter =120000  time[fs]=********
   C -0.745000615E+00  0.493576681E+00  0.292031736E-01
   C  0.392894677E+00  0.143066437E+01 -0.325442549E+00
   C  0.113295630E+00 -0.549767664E+00 -0.187818959E+00
   C  0.151048872E+01  0.521026020E+00 -0.594931333E-01
   H -0.170776243E+01  0.563604047E+00  0.851224901E+00
   H  0.573312357E+00  0.260705730E+01 -0.279886282E+00
   H -0.220759189E+00 -0.146130778E+01  0.573387997E+00
   H  0.249530959E+01  0.412797865E+00 -0.637722758E+00
   H -0.129793270E+01  0.548380675E+00 -0.126141264E+01
   H  0.154299585E+02  0.205468630E+02  0.152194364E+02
   H -0.127483652E+02 -0.202860778E+02  0.125353185E+02
   H  0.122356711E+02 -0.262465250E+01 -0.929098534E+01
