    12
 # iter =120000  time[fs]=********
   C -0.929635577E+00 -0.105597127E+01 -0.171942572E-01
   C  0.332768188E+00 -0.118096782E+01  0.931878648E+00
   C -0.115472125E+01 -0.269831702E+01 -0.483790016E+00
   C  0.648947080E+00 -0.263590411E+01  0.100551735E+00
   H -0.154993415E+01 -0.726027986E-01 -0.354493300E+00
   H  0.889937769E+00 -0.138954693E+00  0.100361317E+01
   H -0.150828603E+01 -0.322051287E+01 -0.144396463E+01
   H  0.150369719E+01 -0.347018350E+01  0.455779472E+00
   H -0.151995835E+02  0.952748506E+01 -0.906779272E+01
   H  0.208552815E+02  0.215853336E+02  0.105182815E+02
   H -0.198806637E+01 -0.360360340E+01  0.620089584E-01
   H  0.169944107E+02 -0.152083111E+02 -0.106649032E+02
