    12
 # iter =120000  time[fs]=********
   C -0.851293535E+00  0.591097702E+00  0.338440666E-01
   C  0.749974234E+00  0.159032651E+01 -0.144726502E-01
   C  0.590130052E+00 -0.717011702E+00  0.318248016E+00
   C  0.151872522E+01  0.297251850E+00 -0.424670820E-01
   H -0.184277379E+01  0.767734426E+00  0.242039295E+00
   H  0.130605129E+01  0.247831220E+01 -0.425261554E+00
   H  0.853386970E+00 -0.835695785E+01 -0.470369828E+01
   H  0.274054469E+01  0.282875853E+00 -0.422185997E+00
   H -0.122726429E+02  0.602589288E+01 -0.568881160E+01
   H  0.995199870E+00  0.247599096E+01  0.100469470E+01
   H  0.109697677E+01 -0.211146922E+01  0.407545781E+00
   H  0.308868532E+02 -0.898109342E+01 -0.171940543E+02
