    12
 # iter =120000  time[fs]=********
   C -0.157590557E+01  0.903851338E+00 -0.253104521E+00
   C -0.289515746E+00  0.121569053E+01  0.236433503E+00
   C -0.151783212E+01 -0.528824038E+00  0.580696486E+00
   C -0.495219051E-01  0.431564632E-01  0.128403602E+01
   H -0.256480698E+01  0.127746636E+01 -0.654164665E+00
   H  0.485458896E+00  0.217155402E+01  0.135479702E+00
   H -0.167980531E+01 -0.142059015E+01 -0.113598450E+00
   H  0.253306531E+00  0.445292907E-01  0.254439164E+01
   H -0.210373707E+02  0.218994231E+02 -0.179404875E+02
   H  0.225290345E+02  0.196408054E+02  0.134163660E+02
   H -0.260657311E+01 -0.988080524E+00  0.119670020E+01
   H  0.668850734E+00 -0.914722100E+00  0.645217420E+00
