    12
 # iter =120000  time[fs]=********
   C -0.152479228E+01  0.142517016E+01  0.311023685E+00
   C -0.776504659E+00  0.288225123E+01  0.689108562E-01
   C -0.615279913E+00  0.856215804E-01  0.781650877E+00
   C  0.510934424E+00 -0.640899061E+00 -0.162423169E-01
   H -0.195773602E+01  0.155821372E+01  0.152024806E+01
   H  0.326199606E-01  0.247690810E+01 -0.695493443E+00
   H -0.633055654E+01 -0.138146658E+02 -0.747998223E+01
   H  0.312293151E+00 -0.222034700E+01  0.737913414E-01
   H -0.243306010E+01  0.120011880E+01 -0.430948732E+00
   H  0.118080186E+00  0.356243509E+01  0.506295355E+00
   H -0.758919637E+00 -0.859080931E+00  0.164120024E+01
   H  0.190055337E+01 -0.412815907E+00 -0.888800985E-01
