    12
 # iter =102000  time[fs]=********
   C -0.798691972E+00 -0.329382368E+00 -0.467261821E+00
   C  0.261363959E+00  0.254910486E+00  0.296297550E+00
   C -0.107838392E+01 -0.198606572E+01  0.827140304E+00
   C  0.340797238E+00 -0.964043035E+00  0.126733736E+01
   H -0.116969817E+01 -0.267432936E+00 -0.164949310E+01
   H  0.489786652E+00  0.118482338E+01  0.928853332E+00
   H -0.207132505E+01 -0.192953661E+01  0.160737122E+01
   H  0.159212789E+01 -0.158278729E+01  0.174990792E+01
   H -0.175782191E+02  0.117440215E+02 -0.133344027E+02
   H  0.141256831E+02  0.173197830E+02  0.389554154E+01
   H -0.127275173E+02 -0.127667033E+02  0.433616044E+01
   H  0.188543664E+02 -0.139056933E+02  0.278024275E+01
