    12
 # iter =120000  time[fs]=********
   C -0.224060594E+01 -0.534144394E+00 -0.419482090E+00
   C -0.378798586E+00 -0.303223491E+00 -0.294860257E+00
   C -0.206753994E+01 -0.196248037E+01 -0.319801056E+00
   C -0.547625412E-01 -0.179676518E+01 -0.276122684E-01
   H -0.310466984E+01 -0.183834018E+00  0.342536851E+00
   H -0.149219252E+00  0.104828211E+01 -0.563741924E-01
   H -0.264758244E+01 -0.310010660E+01 -0.268142885E+00
   H  0.569470598E+00 -0.237716443E+01  0.801319489E+00
   H -0.268456036E+01 -0.177103819E+00 -0.140183078E+01
   H  0.118519190E+02  0.156346082E+02  0.155052970E+02
   H -0.126113346E+02 -0.138294461E+02  0.103294671E+02
   H  0.208846179E+00 -0.221955074E+01 -0.128931331E+01
