    12
 # iter =105000  time[fs]=********
   C -0.198724180E+01  0.111857260E+01  0.212620888E+00
   C -0.424503882E+00  0.129560622E+01 -0.256911219E+00
   C -0.180466637E+01 -0.430554523E+00  0.452764502E+00
   C -0.338885190E+00 -0.249226351E+00 -0.153672924E-01
   H -0.328573543E+01  0.146985071E+01  0.356903661E+00
   H  0.251266617E+00  0.217168071E+01 -0.124731972E+01
   H -0.221578806E+01 -0.162572411E+01  0.602257862E+00
   H  0.722290803E+00 -0.945350757E+00  0.282724972E+00
   H -0.109933798E+02  0.118104345E+02 -0.388081863E+01
   H  0.171411469E+02  0.132817257E+02  0.132524683E+02
   H -0.176842236E+02 -0.147107484E+02  0.127482090E+02
   H  0.983551027E+01 -0.838952799E+01 -0.129146423E+02
