    12
 # iter =100000  time[fs]=********
   C -0.575547892E+00 -0.161363299E+00 -0.250512155E+00
   C  0.670514296E+00  0.724294081E+00 -0.544095193E+00
   C  0.337125172E+00 -0.104071551E+01  0.503330343E+00
   C  0.152630572E+01 -0.587277282E+00 -0.721211727E-01
   H -0.160672424E+01 -0.610629039E+00 -0.683192992E+00
   H  0.430440134E+00  0.516356369E+00 -0.195782368E+01
   H  0.251330562E+00 -0.152884704E+01  0.142016431E+01
   H  0.249684668E+01 -0.748316634E+00  0.317270295E+00
   H -0.261266828E+02  0.629554147E+01 -0.127470845E+02
   H  0.607804687E+00  0.185709581E+01 -0.289269688E+00
   H -0.531013690E+01 -0.102113848E+02  0.104521401E+02
   H  0.205114501E+02 -0.812436910E+01 -0.133461337E+02
