    12
 # iter = 98500  time[fs]=98.50000
   C -0.127382500E+01  0.632160213E+00  0.221166448E-02
   C  0.168238717E+00  0.176144102E+01  0.550006942E+00
   C  0.115780447E+00 -0.780556543E+00  0.346046121E-01
   C  0.145579531E+01  0.303946036E+00  0.233112736E+00
   H -0.170948565E+01  0.397896869E+00  0.110270400E+01
   H -0.136574372E+00  0.222887385E+01 -0.517046122E+00
   H  0.629262763E+00 -0.217198980E+01  0.449124902E-01
   H  0.240252789E+01  0.837231481E+00 -0.662279956E+00
   H -0.209653814E+01  0.793193809E+00 -0.108886754E+01
   H -0.487226576E-01  0.209324873E+01  0.161265574E+01
   H -0.305137971E+01 -0.119911816E+02  0.849275018E+01
   H  0.179730822E+02 -0.600765924E+01 -0.132867609E+02
