    12
 # iter =109000  time[fs]=********
   C -0.189435298E+01 -0.623906677E+00  0.749634118E-01
   C -0.307690653E+00 -0.763352727E-01  0.672621704E+00
   C -0.143833493E+01 -0.213901180E+01 -0.666490272E-02
   C  0.500551052E-01 -0.178040914E+01  0.668896842E+00
   H -0.297595084E+01 -0.145497096E+00 -0.209095139E+00
   H  0.484322773E+00  0.115606623E+01 -0.109759967E+00
   H -0.212211549E+01 -0.307684830E+01 -0.616342357E+00
   H  0.319204907E+00 -0.252349715E+01  0.155221944E+01
   H -0.111092168E+02  0.857201267E+01 -0.133315987E+02
   H  0.154485279E+02  0.144447817E+02  0.873268246E+01
   H -0.263055184E+02 -0.143230783E+02  0.119869270E+02
   H  0.803355458E+00 -0.210029788E+01 -0.350592612E+00
