    12
 # iter = 97500  time[fs]=97.50000
   C -0.860915796E+00 -0.356342017E+00 -0.484490819E-01
   C  0.547035774E+00 -0.776106579E+00 -0.560090507E+00
   C -0.110995613E+01 -0.152264283E+01  0.597098641E+00
   C  0.610689380E+00 -0.205184445E+01  0.457221660E+00
   H -0.126299305E+01  0.728079999E+00 -0.607936979E+00
   H  0.157203836E+01 -0.475665605E+00 -0.108988108E+01
   H -0.160190299E+01 -0.244526826E+01  0.786930719E-01
   H  0.942507956E+00 -0.171669323E+01  0.163698274E+01
   H -0.113877847E+02  0.106593929E+02 -0.128856239E+02
   H  0.103879076E+02  0.999661319E+01  0.893472012E+01
   H -0.153235613E+01 -0.128710449E+01  0.190617520E+01
   H  0.107258716E+01 -0.325020703E+01  0.295684754E+00
