    12
 # iter =120000  time[fs]=********
   C -0.505266323E+00  0.714066759E+00 -0.486349991E+00
   C  0.579786350E+00  0.154114317E+01  0.638603812E+00
   C -0.304695739E+00 -0.636309181E+00 -0.264171166E+00
   C  0.829562168E+00 -0.701204515E+00  0.955301517E+00
   H -0.147619800E+02  0.173902769E+02  0.717195654E+01
   H  0.157475850E+00  0.240969821E+01  0.140901140E+01
   H -0.713435274E+00 -0.163840823E+01 -0.266472503E+00
   H  0.195445543E+00 -0.103082978E+01  0.225895567E+01
   H -0.775275448E+00  0.181239070E+01 -0.123620877E+01
   H  0.190561008E+02  0.195364126E+02  0.123882725E+02
   H -0.297594583E+02 -0.173754811E+02  0.128054574E+02
   H  0.196817835E+01 -0.141378658E+01  0.160015688E+00
