    12
 # iter =105000  time[fs]=********
   C -0.160914999E+01  0.776816015E+00  0.133321923E+00
   C  0.687012410E-01  0.152222075E+01  0.326880048E-01
   C -0.649938027E+00 -0.574361307E+00 -0.703358513E+00
   C  0.456573376E+00  0.300800220E+00 -0.590703011E+00
   H -0.218091175E+01  0.851083037E+00  0.144619125E+01
   H  0.652320838E+00  0.279373111E+01  0.384679261E+00
   H -0.139859642E+01 -0.182330181E+01 -0.101926916E+01
   H  0.152806689E+01  0.456240542E+00 -0.104579878E+01
   H -0.194255033E+02  0.933521367E+01 -0.133299254E+02
   H  0.110889337E+02  0.172954059E+02  0.131798646E+02
   H -0.693977146E+01 -0.141515367E+02  0.533460809E+01
   H  0.232509419E+02 -0.111320974E+02 -0.126359345E+02
