    12
 # iter = 99000  time[fs]=99.00000
   C -0.126035239E+01  0.183948674E+01 -0.515045564E-01
   C  0.141147692E+00  0.126738323E+01 -0.478058217E-02
   C -0.155017146E+01  0.487539605E+00 -0.127831925E+00
   C -0.253307519E+00 -0.306167167E+00 -0.224074759E-01
   H -0.191385312E+01  0.256143908E+01 -0.252512137E+00
   H  0.880228984E+00  0.159066464E+01 -0.103528972E+01
   H -0.239923967E+01 -0.391224451E-01 -0.733756758E+00
   H -0.953605060E-01 -0.143689647E+01  0.574788897E+00
   H -0.104344637E+02  0.131661999E+02 -0.128758150E+02
   H  0.216611667E+02  0.114413457E+02  0.157435181E+02
   H -0.195499419E+02 -0.111099053E+02  0.137448103E+02
   H  0.112929650E+02 -0.139148009E+02 -0.125725337E+02
