    12
 # iter =120000  time[fs]=********
   C -0.122901593E+01  0.174407386E+01  0.928485216E+00
   C  0.312491040E+00  0.769559692E+00  0.876849708E+00
   C -0.200172510E+01  0.425737771E+00  0.878573634E+00
   C -0.567389603E+00 -0.350105953E+00 -0.295323057E-01
   H -0.144084525E+01  0.301197358E+01  0.140406048E+00
   H  0.125639383E+01  0.173488970E+01  0.430884954E+00
   H -0.293594494E+01  0.108944829E+01  0.155140527E+00
   H -0.158202925E-01 -0.151190132E+01 -0.447963864E-01
   H -0.126886088E+02  0.161749108E+02 -0.916453684E+01
   H  0.409527776E+00  0.477544323E+00  0.217500428E+01
   H -0.216233842E+01 -0.202494354E+00  0.183965362E+01
   H -0.196138944E+00  0.276192790E+00 -0.113572240E+01
