    12
 # iter = 86500  time[fs]=86.50000
   C -0.791208206E+00 -0.884805042E-01  0.374656340E-01
   C  0.657261223E+00  0.122812602E+01  0.216081850E+00
   C  0.927533643E-01 -0.108171419E+01  0.320106998E-01
   C  0.133073476E+01 -0.242106813E+00  0.277545308E+00
   H -0.170005325E+01  0.614099589E+00 -0.450364589E+00
   H  0.123420816E+01  0.225537019E+01 -0.240333015E+00
   H  0.315981196E+00 -0.252200287E+01  0.719099724E+00
   H  0.249354682E+01 -0.647987060E+00  0.817314164E+00
   H -0.152882472E+02  0.512772155E+01 -0.129889993E+02
   H  0.408717158E+01  0.144938214E+02  0.876791683E+01
   H -0.548955013E+01 -0.103150156E+02  0.592088124E+01
   H  0.178337496E+01 -0.507373746E+00 -0.884752675E+00
