    12
 # iter =120000  time[fs]=********
   C -0.106095040E+01 -0.620145711E+00  0.178993889E-01
   C  0.448603587E+00  0.378661281E+00  0.423699479E+00
   C -0.153377215E-01 -0.182280530E+01  0.342590994E-02
   C  0.947465311E+00 -0.845827825E+00  0.105332333E+01
   H -0.226953098E+02  0.144932733E+02  0.129104618E+02
   H  0.142993160E+01  0.987899374E+00 -0.836094694E+00
   H  0.882467053E+00 -0.213333014E+01 -0.817300909E+00
   H  0.185452747E+01 -0.122084536E+01  0.166436973E+01
   H -0.487545095E+01 -0.868992841E+00 -0.912335983E+00
   H  0.139936323E+01  0.146630521E+01  0.834163841E+00
   H -0.360833601E+00 -0.285799849E+01  0.323011348E+00
   H  0.208689211E+02 -0.129205307E+02 -0.112181155E+02
