    12
 # iter =116500  time[fs]=********
   C -0.205013113E+01  0.228395142E+01  0.378076379E-01
   C  0.226424216E+01  0.197094695E+00 -0.361700251E-01
   C -0.337815222E+01  0.183053975E+01  0.136462828E+00
   C  0.115806744E+01 -0.873369973E+00 -0.317100704E-01
   H -0.159159723E+01  0.333360735E+01  0.418146652E+00
   H  0.339668516E+01 -0.475772799E+00 -0.631959146E+00
   H -0.168536796E+02 -0.402588962E+01 -0.132560749E+02
   H  0.496081011E+00 -0.142090844E+01  0.102017835E+01
   H -0.167814364E+01  0.227682766E+01 -0.120124400E+01
   H  0.254489436E+01  0.101528091E+01  0.608943475E+00
   H -0.374642526E+01  0.151578524E+01  0.103966452E+01
   H  0.651077197E+00 -0.159516670E+01 -0.101651091E+01
