    12
 # iter =115500  time[fs]=********
   C  0.572831925E+00  0.297575810E+01  0.186668569E+00
   C  0.711368147E+00  0.179754902E+01 -0.290728389E+00
   C -0.132052795E+01 -0.131117118E+01 -0.976791529E+00
   C -0.992459190E-01 -0.661831868E+00 -0.114629365E+01
   H  0.295375943E+00  0.422664913E+01  0.614137306E+00
   H  0.310924789E+01 -0.483464202E+00  0.221275596E+01
   H -0.188937967E+01 -0.192935741E+01 -0.106059096E+00
   H  0.790505086E+00 -0.415975817E+00 -0.416259199E+00
   H -0.190734551E+02  0.227181336E+02 -0.135637506E+02
   H  0.215862092E+02  0.174407640E+02  0.125732001E+02
   H -0.172737581E+02 -0.113328686E+02  0.699092099E+01
   H  0.242942548E+00 -0.417839568E+00 -0.228560419E+01
