    12
 # iter =104500  time[fs]=********
   C -0.982701061E+00  0.192736974E+01  0.185106289E-01
   C  0.171255133E+00  0.219044114E+01 -0.823895944E+00
   C -0.900320243E+00  0.337823852E+00 -0.230244568E-02
   C  0.298620285E+00  0.362359134E+00 -0.111398449E+01
   H -0.148695771E+01  0.247317763E+01  0.966109893E+00
   H  0.860676074E+00  0.266234672E+01 -0.161977547E+01
   H -0.211678901E+01 -0.111360375E+00  0.400359288E+00
   H  0.129800950E+01 -0.182538967E+00 -0.864097900E+00
   H -0.192965497E+02  0.117497028E+02 -0.133129553E+02
   H  0.621966512E+01  0.112424041E+02 -0.187266344E+01
   H -0.123635763E+02 -0.954749751E+01  0.124838649E+02
   H  0.197296712E+02 -0.182883767E+02 -0.919446582E+01
