    12
 # iter =117500  time[fs]=********
   C -0.216575715E+01 -0.864446920E+00  0.321122595E+00
   C -0.465277085E+00 -0.131513497E+01  0.527230666E-01
   C -0.336349110E+01  0.428068185E-01 -0.440572728E+00
   C  0.559726979E+00 -0.205321190E+01 -0.347216883E+00
   H -0.223699305E+01 -0.715788633E+00  0.144308263E+01
   H -0.267037676E+00 -0.559740315E+00  0.124111111E+01
   H -0.442467200E+01 -0.469242802E+00 -0.458051639E+00
   H  0.154728452E+01 -0.190684107E+01 -0.123873487E+01
   H -0.123904356E+02  0.206321026E+02 -0.108862215E+02
   H  0.131218287E+02  0.893976861E+01  0.132014452E+02
   H -0.317785814E+01 -0.245528429E+00 -0.163536072E+01
   H  0.232013160E+02 -0.185017630E+02 -0.159348627E+02
