    12
 # iter = 94500  time[fs]=94.50000
   C -0.151100947E+01 -0.437685369E+00 -0.475305691E+00
   C -0.361091593E+00 -0.775216927E+00  0.325228448E+00
   C -0.219711104E+01 -0.158749903E+01 -0.866738418E+00
   C  0.292355569E+00 -0.182436088E+01 -0.191531586E-01
   H -0.154973634E+01  0.844995728E+00 -0.562354435E+00
   H -0.570267903E-01 -0.410898020E+00  0.135164642E+01
   H -0.269474105E+01 -0.169137684E+01 -0.228092503E+01
   H  0.152555391E+01 -0.201106861E+01  0.599425024E-01
   H -0.139552988E+02  0.118366856E+02 -0.999511055E+01
   H  0.119062008E+02  0.976599676E+01  0.132620922E+02
   H -0.301069914E+01 -0.213522480E+01 -0.638174464E+00
   H  0.136841314E+02 -0.126582113E+02 -0.789905208E+01
