    12
 # iter = 95500  time[fs]=95.50000
   C -0.231389194E+00  0.127941054E+01  0.195101725E+00
   C  0.852235048E+00  0.154757157E+01  0.102911676E+01
   C  0.110061041E+00 -0.169419237E+00 -0.289903316E+00
   C  0.144522624E+01 -0.684968864E-02  0.159591750E+00
   H -0.141994497E+01  0.181323206E+01 -0.464709249E-01
   H  0.568362407E+00  0.216573961E+01  0.232041109E+01
   H -0.262351008E+00 -0.879652926E+00 -0.152003394E+01
   H  0.216674753E+01 -0.165408491E+00 -0.102403573E+01
   H -0.948633492E+01  0.122592016E+02 -0.959496180E+01
   H  0.151351035E+02  0.126036169E+02  0.140581846E+02
   H -0.112007007E+02 -0.136773943E+02  0.511000931E+01
   H  0.182892278E+02 -0.833340823E+01 -0.109438510E+02
