    12
 # iter =113000  time[fs]=********
   C -0.717828058E+00  0.719133892E+00 -0.544429604E+00
   C  0.767044809E+00  0.816872270E+00 -0.472216566E+00
   C -0.944454661E+00 -0.535417330E+00 -0.668243472E+00
   C  0.117120555E+01 -0.495137362E+00 -0.566314389E-02
   H -0.958634608E+01  0.482802811E+01  0.479301833E+01
   H  0.143182489E+01  0.109763436E+01 -0.129440173E+01
   H -0.146057181E+01 -0.175399205E+01 -0.474911864E+00
   H  0.222148618E+01 -0.962149146E+00 -0.359981248E+00
   H -0.147868300E+02  0.134570617E+02 -0.129206913E+02
   H  0.150706530E+02  0.194374349E+02  0.144213942E+02
   H -0.146783282E+02 -0.204760069E+02 -0.637395812E+00
   H  0.186852387E+02 -0.834733685E+01 -0.314816041E+01
