    12
 # iter =120000  time[fs]=********
   C  0.151679326E+01  0.511041080E+00 -0.509437461E-01
   C  0.301897024E+01  0.851505634E+00  0.912346869E-01
   C  0.205541147E+00 -0.205322641E+00 -0.148560545E-01
   C -0.266984819E+00 -0.163992728E+01  0.238889656E+00
   H  0.129444596E+01  0.164786777E+01 -0.316900171E+00
   H  0.332508967E+01  0.520345868E+00  0.135405816E+01
   H -0.734832901E+00  0.834771027E-01 -0.515381276E+00
   H  0.251764046E+00 -0.266977692E+01 -0.605135419E-01
   H -0.399157294E+01  0.197987900E+02 -0.161725202E+02
   H  0.390819796E+01  0.142063617E+01 -0.826102450E+00
   H -0.295259865E+02 -0.929284024E+01  0.180591047E+02
   H -0.148741664E+01 -0.187477216E+01  0.982509522E+00
