    12
 # iter = 92500  time[fs]=92.50000
   C -0.125369795E+01  0.205522098E+01  0.372518540E-01
   C  0.293621344E+00  0.177017149E+01 -0.362568068E+00
   C -0.132525993E+01  0.654055043E+00  0.459714583E-01
   C  0.534164224E-01  0.497041008E+00  0.187041349E-01
   H -0.162385050E+01  0.213992627E+01 -0.109142100E+01
   H  0.533746697E+00  0.278678448E+01 -0.274413912E+00
   H -0.251713377E+01 -0.372206462E-01  0.600788973E-02
   H  0.756612403E+00 -0.534402483E+00  0.146668175E+00
   H -0.325769110E+01  0.455505724E+01 -0.548679910E+01
   H  0.919267564E+01  0.702330583E+01  0.807356523E+01
   H -0.151779635E+02 -0.748512576E+01  0.101496547E+02
   H  0.132025781E+02 -0.132997976E+02 -0.128671674E+02
