    12
 # iter =120000  time[fs]=********
   C -0.483601309E-01 -0.285335069E+00 -0.212716232E+00
   C  0.154323630E+01 -0.919335071E+00  0.456601581E+00
   C -0.114312697E+01 -0.145095418E+01 -0.357056061E+00
   C  0.236115347E+01 -0.197937780E+01  0.261893846E+00
   H -0.337912727E+00  0.535049095E+00  0.744461504E+00
   H  0.183873188E+01 -0.345136394E+00  0.131289010E+01
   H -0.219516460E+01 -0.123822737E+01 -0.631181986E+00
   H  0.273536608E+01 -0.338301132E+01 -0.261368649E+00
   H  0.195066509E+00  0.214214592E+00 -0.120273469E+01
   H  0.304070274E+01 -0.196564473E+01  0.610583174E+01
   H -0.618552098E+00 -0.255509305E+01 -0.593731811E+00
   H  0.156558254E+02 -0.101234314E+02 -0.115990088E+02
