    12
 # iter = 98000  time[fs]=98.00000
   C -0.182930335E+01  0.993395016E+00  0.291205387E+00
   C -0.158598767E+00  0.665137246E+00 -0.365303599E+00
   C -0.189427797E+01 -0.639802708E+00  0.258333994E+00
   C -0.404999382E+00 -0.842943480E+00 -0.288279799E+00
   H -0.175709927E+01  0.122385272E+01  0.128500575E+01
   H  0.607473827E+00  0.148420038E+01 -0.101212023E+01
   H -0.263735743E+01 -0.119979546E+01 -0.425280142E+00
   H  0.178572223E+00 -0.187371241E+01 -0.674894270E+00
   H -0.267275080E+01  0.171919716E+01 -0.391911404E+00
   H  0.158273775E+02  0.987481359E+01  0.104377009E+02
   H -0.233547471E+01 -0.143792990E+01  0.115688861E+01
   H  0.793076144E+01 -0.101843275E+02 -0.129576899E+02
