    12
 # iter =103500  time[fs]=********
   C -0.128458691E+01  0.216159988E+01 -0.302885986E+00
   C  0.115740132E+00  0.197464065E+01 -0.449815158E+00
   C -0.145249662E+01  0.679105335E+00  0.298502288E-01
   C  0.119428070E+00  0.648898434E+00 -0.254763613E-01
   H -0.185511983E+01  0.227589726E+01 -0.155419042E+01
   H  0.102277781E+01  0.322735108E+01 -0.412291540E+00
   H -0.178305946E+01 -0.135343129E+00 -0.888604786E+00
   H  0.100274335E+01 -0.300911112E+00  0.165157548E+00
   H -0.102808002E+02  0.154543105E+02 -0.206171369E+01
   H  0.172920657E+02  0.103503823E+02  0.117119425E+02
   H -0.262548223E+01  0.671237794E+00  0.198532169E+01
   H  0.820291935E+01 -0.970944767E+01 -0.129095942E+02
