    12
 # iter =120000  time[fs]=********
   C -0.702123717E+00  0.747659433E-01 -0.690383327E+00
   C  0.487464328E+00  0.106293043E+01  0.249907615E+00
   C  0.421804444E+00 -0.944533070E+00 -0.365040158E+00
   C  0.127489518E+01 -0.231377341E+00  0.332332281E+00
   H -0.175956944E+01 -0.113732967E-02 -0.298576772E+00
   H -0.220041158E+00  0.176739104E+01  0.131138369E+01
   H  0.551348330E+00 -0.205200792E+01 -0.965638554E+00
   H  0.255579787E+01 -0.346646926E+00  0.507432641E+00
   H -0.171504649E+01 -0.150128350E+00 -0.153270317E+01
   H  0.125250636E+02  0.194960989E+02  0.142914618E+02
   H -0.171760759E+02 -0.209869047E+02  0.128818748E+02
   H  0.220680304E+02 -0.121308067E+02 -0.113745604E+02
