    12
 # iter =120000  time[fs]=********
   C -0.177556736E+01 -0.615619407E+00  0.289094980E+00
   C -0.437768715E+00 -0.334423608E+00 -0.891944934E-01
   C -0.150050042E+01 -0.215218016E+01 -0.679291380E-01
   C  0.526298533E-01 -0.238954499E+01 -0.290151494E+00
   H -0.270084950E+01 -0.383781804E+00  0.107919247E+01
   H -0.203993554E+00  0.855452416E+00 -0.648566896E+00
   H -0.254865925E+01 -0.273486143E+01 -0.308776470E+00
   H  0.123088682E+01 -0.288335763E+01 -0.302905464E+00
   H -0.207866262E+02  0.146633460E+02 -0.105117439E+02
   H  0.195860952E+02  0.149185338E+02  0.152438826E+02
   H -0.188589892E+02 -0.182351523E+02  0.151038109E+02
   H  0.223555695E+02 -0.181836218E+02 -0.181666353E+02
