    12
 # iter =120000  time[fs]=********
   C  0.408939126E+00 -0.335027998E+00 -0.200183904E+00
   C -0.866215162E-01  0.466995505E+00  0.858721700E+00
   C  0.141638374E+01 -0.153191145E+01 -0.677631264E+00
   C  0.174283297E+01 -0.221937218E+01  0.786569096E+00
   H -0.113425085E+00 -0.302876964E+00 -0.118051046E+01
   H -0.113901124E+01  0.917096744E+00  0.991109077E+00
   H  0.199169970E+01 -0.197536142E+01 -0.158801352E+01
   H  0.117675774E+01 -0.259345882E+01  0.184985125E+01
   H -0.246477724E+02  0.150501661E+02 -0.124849422E+02
   H  0.208391855E+02  0.225679950E+02  0.102035490E+02
   H -0.188466214E+02 -0.206564875E+02  0.161045669E+02
   H  0.207062136E+01 -0.343081001E+01  0.810204014E+00
