    12
 # iter = 98000  time[fs]=98.00000
   C -0.104586002E+01  0.120211710E+00  0.426403043E-01
   C  0.320168389E+00 -0.167316551E+00 -0.230310335E-01
   C -0.146034865E+01 -0.147570981E+01 -0.180415046E-01
   C -0.129651118E+00 -0.165600279E+01  0.678092356E-01
   H -0.175506521E+01  0.132520163E+01 -0.139203368E+00
   H  0.136574455E+01  0.119621705E+00  0.620201590E+00
   H -0.249277116E+01 -0.209619842E+01 -0.147012929E+00
   H  0.472098774E+00 -0.272312030E+01 -0.296780009E+00
   H -0.110381151E+02  0.835695129E+01 -0.979458931E+01
   H  0.150906686E+02  0.103006244E+02  0.139861378E+02
   H -0.108655349E+02 -0.898692513E+01  0.886575797E+01
   H  0.610911855E+01 -0.114536970E+02 -0.797612569E+01
