    12
 # iter =120000  time[fs]=********
   C -0.163079619E+01  0.183773945E+01  0.343977363E+00
   C -0.236922259E+00  0.222764173E+01 -0.285196015E-01
   C -0.117889169E+01  0.490928841E+00 -0.538433205E-01
   C  0.496851403E+00  0.933255237E+00 -0.124806535E+00
   H -0.181188441E+01  0.187097955E+01  0.145528724E+01
   H -0.578126636E+00  0.291482154E+01 -0.104677398E+01
   H -0.171970426E+01 -0.495992929E+00 -0.239380215E+00
   H  0.101402152E+01  0.836568709E+00  0.115911878E+01
   H -0.281928375E+01  0.219954261E+01 -0.303564569E+00
   H  0.391067405E-01  0.341437307E+01  0.363774569E+00
   H -0.105160920E+02 -0.163418716E+02  0.149465680E+02
   H  0.119449345E+01  0.849513166E+00 -0.113823059E+01
