    12
 # iter = 91000  time[fs]=91.00000
   C -0.120906348E+01  0.116422464E+01 -0.478186145E-01
   C  0.742435348E-01  0.122500742E+01  0.358366591E+00
   C -0.552863523E+00 -0.516387188E+00 -0.659634771E+00
   C  0.645555784E+00  0.984510150E-01 -0.114905120E+00
   H -0.948032926E+01  0.534626832E+01  0.477715033E+01
   H  0.975623498E+00  0.223888734E+01  0.427338868E+00
   H -0.114939742E+01 -0.114591694E+01 -0.142524511E+01
   H  0.175331025E+01 -0.341249985E+00  0.259169053E-02
   H -0.876776219E+01  0.108242267E+02 -0.706622143E+01
   H  0.133129842E+02  0.127759744E+02  0.132673187E+02
   H -0.172369928E+01 -0.666213347E+00  0.785003880E+00
   H  0.153626242E+02 -0.442656217E+01 -0.100039951E+02
