    12
 # iter =106500  time[fs]=********
   C -0.134669029E+01  0.662825439E+00  0.355799334E-01
   C -0.853198382E-01 -0.395943918E-01  0.505944915E+00
   C -0.175060905E+01 -0.669092708E+00 -0.601168094E+00
   C  0.234687514E+00 -0.131163673E+01  0.260042525E+00
   H -0.190393572E+01  0.170367809E+01  0.651264321E+00
   H  0.911277539E+00  0.543309066E+00  0.122301212E+01
   H -0.242849786E+01 -0.146220913E+01 -0.629451421E+00
   H  0.715791925E+00 -0.219569640E+01  0.206687021E+00
   H -0.205685964E+02  0.140520808E+02 -0.105671370E+02
   H  0.150892778E+02  0.137534303E+02  0.139872514E+02
   H -0.132723832E+02 -0.165036095E+02  0.933296728E+00
   H  0.248329901E+02 -0.130950836E+02 -0.160628900E+02
