    12
 # iter = 94500  time[fs]=94.50000
   C  0.512249051E-01 -0.471821244E+00 -0.505676477E+00
   C  0.131108260E+01 -0.361573117E-01  0.682763172E-02
   C  0.148375730E-01 -0.184324059E+01 -0.349042741E-01
   C  0.147637131E+01 -0.147517166E+01  0.201752077E-01
   H -0.316066795E+00 -0.212986823E+00 -0.158484169E+01
   H  0.208680341E+01  0.986173753E+00 -0.329246806E+00
   H -0.472315271E+00 -0.307358822E+01  0.554143325E+00
   H  0.258545894E+01 -0.223469892E+01  0.265949363E+00
   H -0.145231190E+02  0.100810225E+02 -0.133025570E+02
   H  0.103905036E+02  0.764053603E+01  0.997672983E+01
   H -0.100911514E+02 -0.142125396E+02  0.968551627E+01
   H  0.340191367E+01 -0.192213477E+01 -0.525546553E+01
